! rfsim (KiCad + openEMS)
# HZ S RI R 50
5.000000e+08 -5.475723780e-01 1.801960689e-02 7.730728043e-01 3.818888526e-01 0.000000000e+00 0.000000000e+00 0.000000000e+00 0.000000000e+00
5.100000e+08 -5.477404915e-01 1.833906194e-02 7.695063054e-01 3.886581377e-01 0.000000000e+00 0.000000000e+00 0.000000000e+00 0.000000000e+00
5.200000e+08 -5.479111833e-01 1.865627134e-02 7.658851067e-01 3.953797808e-01 0.000000000e+00 0.000000000e+00 0.000000000e+00 0.000000000e+00
5.300000e+08 -5.480844146e-01 1.897120801e-02 7.622100353e-01 4.020532073e-01 0.000000000e+00 0.000000000e+00 0.000000000e+00 0.000000000e+00
5.400000e+08 -5.482601459e-01 1.928384572e-02 7.584819251e-01 4.086778604e-01 0.000000000e+00 0.000000000e+00 0.000000000e+00 0.000000000e+00
5.500000e+08 -5.484383378e-01 1.959415901e-02 7.547016156e-01 4.152532004e-01 0.000000000e+00 0.000000000e+00 0.000000000e+00 0.000000000e+00
5.600000e+08 -5.486189504e-01 1.990212330e-02 7.508699522e-01 4.217787056e-01 0.000000000e+00 0.000000000e+00 0.000000000e+00 0.000000000e+00
5.700000e+08 -5.488019435e-01 2.020771481e-02 7.469877856e-01 4.282538714e-01 0.000000000e+00 0.000000000e+00 0.000000000e+00 0.000000000e+00
5.800000e+08 -5.489872769e-01 2.051091059e-02 7.430559709e-01 4.346782110e-01 0.000000000e+00 0.000000000e+00 0.000000000e+00 0.000000000e+00
5.900000e+08 -5.491749101e-01 2.081168852e-02 7.390753678e-01 4.410512550e-01 0.000000000e+00 0.000000000e+00 0.000000000e+00 0.000000000e+00
6.000000e+08 -5.493648023e-01 2.111002730e-02 7.350468400e-01 4.473725519e-01 0.000000000e+00 0.000000000e+00 0.000000000e+00 0.000000000e+00
6.100000e+08 -5.495569127e-01 2.140590647e-02 7.309712544e-01 4.536416671e-01 0.000000000e+00 0.000000000e+00 0.000000000e+00 0.000000000e+00
6.200000e+08 -5.497512003e-01 2.169930638e-02 7.268494814e-01 4.598581841e-01 0.000000000e+00 0.000000000e+00 0.000000000e+00 0.000000000e+00
6.300000e+08 -5.499476238e-01 2.199020820e-02 7.226823939e-01 4.660217034e-01 0.000000000e+00 0.000000000e+00 0.000000000e+00 0.000000000e+00
6.400000e+08 -5.501461421e-01 2.227859394e-02 7.184708671e-01 4.721318430e-01 0.000000000e+00 0.000000000e+00 0.000000000e+00 0.000000000e+00
6.500000e+08 -5.503467139e-01 2.256444640e-02 7.142157782e-01 4.781882382e-01 0.000000000e+00 0.000000000e+00 0.000000000e+00 0.000000000e+00
6.600000e+08 -5.505492976e-01 2.284774920e-02 7.099180059e-01 4.841905417e-01 0.000000000e+00 0.000000000e+00 0.000000000e+00 0.000000000e+00
6.700000e+08 -5.507538518e-01 2.312848678e-02 7.055784300e-01 4.901384230e-01 0.000000000e+00 0.000000000e+00 0.000000000e+00 0.000000000e+00
6.800000e+08 -5.509603351e-01 2.340664437e-02 7.011979313e-01 4.960315690e-01 0.000000000e+00 0.000000000e+00 0.000000000e+00 0.000000000e+00
6.900000e+08 -5.511687058e-01 2.368220800e-02 6.967773907e-01 5.018696832e-01 0.000000000e+00 0.000000000e+00 0.000000000e+00 0.000000000e+00
7.000000e+08 -5.513789225e-01 2.395516450e-02 6.923176892e-01 5.076524861e-01 0.000000000e+00 0.000000000e+00 0.000000000e+00 0.000000000e+00
7.100000e+08 -5.515909437e-01 2.422550148e-02 6.878197077e-01 5.133797151e-01 0.000000000e+00 0.000000000e+00 0.000000000e+00 0.000000000e+00
7.200000e+08 -5.518047278e-01 2.449320733e-02 6.832843262e-01 5.190511238e-01 0.000000000e+00 0.000000000e+00 0.000000000e+00 0.000000000e+00
7.300000e+08 -5.520202334e-01 2.475827123e-02 6.787124236e-01 5.246664825e-01 0.000000000e+00 0.000000000e+00 0.000000000e+00 0.000000000e+00
7.400000e+08 -5.522374192e-01 2.502068311e-02 6.741048777e-01 5.302255777e-01 0.000000000e+00 0.000000000e+00 0.000000000e+00 0.000000000e+00
7.500000e+08 -5.524562438e-01 2.528043367e-02 6.694625644e-01 5.357282120e-01 0.000000000e+00 0.000000000e+00 0.000000000e+00 0.000000000e+00
7.600000e+08 -5.526766661e-01 2.553751437e-02 6.647863576e-01 5.411742042e-01 0.000000000e+00 0.000000000e+00 0.000000000e+00 0.000000000e+00
7.700000e+08 -5.528986451e-01 2.579191739e-02 6.600771288e-01 5.465633886e-01 0.000000000e+00 0.000000000e+00 0.000000000e+00 0.000000000e+00
7.800000e+08 -5.531221396e-01 2.604363568e-02 6.553357470e-01 5.518956154e-01 0.000000000e+00 0.000000000e+00 0.000000000e+00 0.000000000e+00
7.900000e+08 -5.533471090e-01 2.629266290e-02 6.505630781e-01 5.571707501e-01 0.000000000e+00 0.000000000e+00 0.000000000e+00 0.000000000e+00
8.000000e+08 -5.535735126e-01 2.653899343e-02 6.457599847e-01 5.623886736e-01 0.000000000e+00 0.000000000e+00 0.000000000e+00 0.000000000e+00
8.100000e+08 -5.538013098e-01 2.678262237e-02 6.409273259e-01 5.675492818e-01 0.000000000e+00 0.000000000e+00 0.000000000e+00 0.000000000e+00
8.200000e+08 -5.540304604e-01 2.702354551e-02 6.360659570e-01 5.726524856e-01 0.000000000e+00 0.000000000e+00 0.000000000e+00 0.000000000e+00
8.300000e+08 -5.542609243e-01 2.726175935e-02 6.311767291e-01 5.776982105e-01 0.000000000e+00 0.000000000e+00 0.000000000e+00 0.000000000e+00
8.400000e+08 -5.544926614e-01 2.749726105e-02 6.262604890e-01 5.826863965e-01 0.000000000e+00 0.000000000e+00 0.000000000e+00 0.000000000e+00
8.500000e+08 -5.547256323e-01 2.773004846e-02 6.213180786e-01 5.876169979e-01 0.000000000e+00 0.000000000e+00 0.000000000e+00 0.000000000e+00
8.600000e+08 -5.549597973e-01 2.796012010e-02 6.163503353e-01 5.924899830e-01 0.000000000e+00 0.000000000e+00 0.000000000e+00 0.000000000e+00
8.700000e+08 -5.551951172e-01 2.818747512e-02 6.113580911e-01 5.973053341e-01 0.000000000e+00 0.000000000e+00 0.000000000e+00 0.000000000e+00
8.800000e+08 -5.554315532e-01 2.841211332e-02 6.063421726e-01 6.020630470e-01 0.000000000e+00 0.000000000e+00 0.000000000e+00 0.000000000e+00
8.900000e+08 -5.556690664e-01 2.863403515e-02 6.013034008e-01 6.067631309e-01 0.000000000e+00 0.000000000e+00 0.000000000e+00 0.000000000e+00
9.000000e+08 -5.559076185e-01 2.885324165e-02 5.962425911e-01 6.114056081e-01 0.000000000e+00 0.000000000e+00 0.000000000e+00 0.000000000e+00
9.100000e+08 -5.561471714e-01 2.906973448e-02 5.911605525e-01 6.159905141e-01 0.000000000e+00 0.000000000e+00 0.000000000e+00 0.000000000e+00
9.200000e+08 -5.563876871e-01 2.928351592e-02 5.860580879e-01 6.205178968e-01 0.000000000e+00 0.000000000e+00 0.000000000e+00 0.000000000e+00
9.300000e+08 -5.566291282e-01 2.949458882e-02 5.809359939e-01 6.249878166e-01 0.000000000e+00 0.000000000e+00 0.000000000e+00 0.000000000e+00
9.400000e+08 -5.568714574e-01 2.970295659e-02 5.757950603e-01 6.294003464e-01 0.000000000e+00 0.000000000e+00 0.000000000e+00 0.000000000e+00
9.500000e+08 -5.571146378e-01 2.990862324e-02 5.706360700e-01 6.337555708e-01 0.000000000e+00 0.000000000e+00 0.000000000e+00 0.000000000e+00
9.600000e+08 -5.573586329e-01 3.011159330e-02 5.654597991e-01 6.380535862e-01 0.000000000e+00 0.000000000e+00 0.000000000e+00 0.000000000e+00
9.700000e+08 -5.576034063e-01 3.031187187e-02 5.602670164e-01 6.422945006e-01 0.000000000e+00 0.000000000e+00 0.000000000e+00 0.000000000e+00
9.800000e+08 -5.578489223e-01 3.050946456e-02 5.550584834e-01 6.464784332e-01 0.000000000e+00 0.000000000e+00 0.000000000e+00 0.000000000e+00
9.900000e+08 -5.580951452e-01 3.070437751e-02 5.498349541e-01 6.506055140e-01 0.000000000e+00 0.000000000e+00 0.000000000e+00 0.000000000e+00
1.000000e+09 -5.583420399e-01 3.089661736e-02 5.445971750e-01 6.546758841e-01 0.000000000e+00 0.000000000e+00 0.000000000e+00 0.000000000e+00
1.010000e+09 -5.585895715e-01 3.108619124e-02 5.393458848e-01 6.586896949e-01 0.000000000e+00 0.000000000e+00 0.000000000e+00 0.000000000e+00
1.020000e+09 -5.588377057e-01 3.127310679e-02 5.340818142e-01 6.626471082e-01 0.000000000e+00 0.000000000e+00 0.000000000e+00 0.000000000e+00
1.030000e+09 -5.590864083e-01 3.145737209e-02 5.288056859e-01 6.665482955e-01 0.000000000e+00 0.000000000e+00 0.000000000e+00 0.000000000e+00
1.040000e+09 -5.593356457e-01 3.163899571e-02 5.235182146e-01 6.703934385e-01 0.000000000e+00 0.000000000e+00 0.000000000e+00 0.000000000e+00
1.050000e+09 -5.595853846e-01 3.181798663e-02 5.182201068e-01 6.741827281e-01 0.000000000e+00 0.000000000e+00 0.000000000e+00 0.000000000e+00
1.060000e+09 -5.598355920e-01 3.199435430e-02 5.129120604e-01 6.779163646e-01 0.000000000e+00 0.000000000e+00 0.000000000e+00 0.000000000e+00
1.070000e+09 -5.600862355e-01 3.216810858e-02 5.075947651e-01 6.815945572e-01 0.000000000e+00 0.000000000e+00 0.000000000e+00 0.000000000e+00
1.080000e+09 -5.603372830e-01 3.233925976e-02 5.022689020e-01 6.852175241e-01 0.000000000e+00 0.000000000e+00 0.000000000e+00 0.000000000e+00
1.090000e+09 -5.605887027e-01 3.250781851e-02 4.969351437e-01 6.887854918e-01 0.000000000e+00 0.000000000e+00 0.000000000e+00 0.000000000e+00
1.100000e+09 -5.608404634e-01 3.267379590e-02 4.915941539e-01 6.922986951e-01 0.000000000e+00 0.000000000e+00 0.000000000e+00 0.000000000e+00
1.110000e+09 -5.610925342e-01 3.283720339e-02 4.862465878e-01 6.957573771e-01 0.000000000e+00 0.000000000e+00 0.000000000e+00 0.000000000e+00
1.120000e+09 -5.613448846e-01 3.299805278e-02 4.808930917e-01 6.991617883e-01 0.000000000e+00 0.000000000e+00 0.000000000e+00 0.000000000e+00
1.130000e+09 -5.615974846e-01 3.315635625e-02 4.755343030e-01 7.025121871e-01 0.000000000e+00 0.000000000e+00 0.000000000e+00 0.000000000e+00
1.140000e+09 -5.618503045e-01 3.331212632e-02 4.701708501e-01 7.058088390e-01 0.000000000e+00 0.000000000e+00 0.000000000e+00 0.000000000e+00
1.150000e+09 -5.621033153e-01 3.346537584e-02 4.648033527e-01 7.090520168e-01 0.000000000e+00 0.000000000e+00 0.000000000e+00 0.000000000e+00
1.160000e+09 -5.623564880e-01 3.361611798e-02 4.594324214e-01 7.122419998e-01 0.000000000e+00 0.000000000e+00 0.000000000e+00 0.000000000e+00
1.170000e+09 -5.626097943e-01 3.376436623e-02 4.540586575e-01 7.153790743e-01 0.000000000e+00 0.000000000e+00 0.000000000e+00 0.000000000e+00
1.180000e+09 -5.628632063e-01 3.391013438e-02 4.486826536e-01 7.184635327e-01 0.000000000e+00 0.000000000e+00 0.000000000e+00 0.000000000e+00
1.190000e+09 -5.631166966e-01 3.405343650e-02 4.433049932e-01 7.214956737e-01 0.000000000e+00 0.000000000e+00 0.000000000e+00 0.000000000e+00
1.200000e+09 -5.633702380e-01 3.419428695e-02 4.379262504e-01 7.244758018e-01 0.000000000e+00 0.000000000e+00 0.000000000e+00 0.000000000e+00
1.210000e+09 -5.636238039e-01 3.433270035e-02 4.325469905e-01 7.274042274e-01 0.000000000e+00 0.000000000e+00 0.000000000e+00 0.000000000e+00
1.220000e+09 -5.638773680e-01 3.446869158e-02 4.271677695e-01 7.302812662e-01 0.000000000e+00 0.000000000e+00 0.000000000e+00 0.000000000e+00
1.230000e+09 -5.641309047e-01 3.460227579e-02 4.217891344e-01 7.331072392e-01 0.000000000e+00 0.000000000e+00 0.000000000e+00 0.000000000e+00
1.240000e+09 -5.643843886e-01 3.473346833e-02 4.164116230e-01 7.358824726e-01 0.000000000e+00 0.000000000e+00 0.000000000e+00 0.000000000e+00
1.250000e+09 -5.646377946e-01 3.486228480e-02 4.110357640e-01 7.386072972e-01 0.000000000e+00 0.000000000e+00 0.000000000e+00 0.000000000e+00
1.260000e+09 -5.648910985e-01 3.498874101e-02 4.056620771e-01 7.412820485e-01 0.000000000e+00 0.000000000e+00 0.000000000e+00 0.000000000e+00
1.270000e+09 -5.651442760e-01 3.511285300e-02 4.002910728e-01 7.439070665e-01 0.000000000e+00 0.000000000e+00 0.000000000e+00 0.000000000e+00
1.280000e+09 -5.653973035e-01 3.523463697e-02 3.949232525e-01 7.464826953e-01 0.000000000e+00 0.000000000e+00 0.000000000e+00 0.000000000e+00
1.290000e+09 -5.656501579e-01 3.535410935e-02 3.895591088e-01 7.490092831e-01 0.000000000e+00 0.000000000e+00 0.000000000e+00 0.000000000e+00
1.300000e+09 -5.659028163e-01 3.547128671e-02 3.841991251e-01 7.514871819e-01 0.000000000e+00 0.000000000e+00 0.000000000e+00 0.000000000e+00
1.310000e+09 -5.661552565e-01 3.558618581e-02 3.788437757e-01 7.539167472e-01 0.000000000e+00 0.000000000e+00 0.000000000e+00 0.000000000e+00
1.320000e+09 -5.664074563e-01 3.569882359e-02 3.734935262e-01 7.562983380e-01 0.000000000e+00 0.000000000e+00 0.000000000e+00 0.000000000e+00
1.330000e+09 -5.666593944e-01 3.580921711e-02 3.681488332e-01 7.586323166e-01 0.000000000e+00 0.000000000e+00 0.000000000e+00 0.000000000e+00
1.340000e+09 -5.669110496e-01 3.591738358e-02 3.628101445e-01 7.609190483e-01 0.000000000e+00 0.000000000e+00 0.000000000e+00 0.000000000e+00
1.350000e+09 -5.671624013e-01 3.602334036e-02 3.574778989e-01 7.631589011e-01 0.000000000e+00 0.000000000e+00 0.000000000e+00 0.000000000e+00
1.360000e+09 -5.674134291e-01 3.612710493e-02 3.521525265e-01 7.653522460e-01 0.000000000e+00 0.000000000e+00 0.000000000e+00 0.000000000e+00
1.370000e+09 -5.676641132e-01 3.622869489e-02 3.468344489e-01 7.674994562e-01 0.000000000e+00 0.000000000e+00 0.000000000e+00 0.000000000e+00
1.380000e+09 -5.679144341e-01 3.632812793e-02 3.415240787e-01 7.696009075e-01 0.000000000e+00 0.000000000e+00 0.000000000e+00 0.000000000e+00
1.390000e+09 -5.681643729e-01 3.642542187e-02 3.362218200e-01 7.716569776e-01 0.000000000e+00 0.000000000e+00 0.000000000e+00 0.000000000e+00
1.400000e+09 -5.684139107e-01 3.652059461e-02 3.309280686e-01 7.736680464e-01 0.000000000e+00 0.000000000e+00 0.000000000e+00 0.000000000e+00
1.410000e+09 -5.686630295e-01 3.661366415e-02 3.256432114e-01 7.756344957e-01 0.000000000e+00 0.000000000e+00 0.000000000e+00 0.000000000e+00
1.420000e+09 -5.689117114e-01 3.670464854e-02 3.203676271e-01 7.775567087e-01 0.000000000e+00 0.000000000e+00 0.000000000e+00 0.000000000e+00
1.430000e+09 -5.691599388e-01 3.679356593e-02 3.151016861e-01 7.794350703e-01 0.000000000e+00 0.000000000e+00 0.000000000e+00 0.000000000e+00
1.440000e+09 -5.694076948e-01 3.688043453e-02 3.098457504e-01 7.812699668e-01 0.000000000e+00 0.000000000e+00 0.000000000e+00 0.000000000e+00
1.450000e+09 -5.696549626e-01 3.696527259e-02 3.046001737e-01 7.830617857e-01 0.000000000e+00 0.000000000e+00 0.000000000e+00 0.000000000e+00
1.460000e+09 -5.699017260e-01 3.704809843e-02 2.993653018e-01 7.848109155e-01 0.000000000e+00 0.000000000e+00 0.000000000e+00 0.000000000e+00
1.470000e+09 -5.701479690e-01 3.712893041e-02 2.941414721e-01 7.865177457e-01 0.000000000e+00 0.000000000e+00 0.000000000e+00 0.000000000e+00
1.480000e+09 -5.703936762e-01 3.720778692e-02 2.889290144e-01 7.881826665e-01 0.000000000e+00 0.000000000e+00 0.000000000e+00 0.000000000e+00
1.490000e+09 -5.706388323e-01 3.728468639e-02 2.837282501e-01 7.898060690e-01 0.000000000e+00 0.000000000e+00 0.000000000e+00 0.000000000e+00
1.500000e+09 -5.708834226e-01 3.735964727e-02 2.785394932e-01 7.913883445e-01 0.000000000e+00 0.000000000e+00 0.000000000e+00 0.000000000e+00
1.510000e+09 -5.711274327e-01 3.743268802e-02 2.733630497e-01 7.929298849e-01 0.000000000e+00 0.000000000e+00 0.000000000e+00 0.000000000e+00
1.520000e+09 -5.713708484e-01 3.750382713e-02 2.681992180e-01 7.944310824e-01 0.000000000e+00 0.000000000e+00 0.000000000e+00 0.000000000e+00
1.530000e+09 -5.716136561e-01 3.757308309e-02 2.630482889e-01 7.958923292e-01 0.000000000e+00 0.000000000e+00 0.000000000e+00 0.000000000e+00
1.540000e+09 -5.718558424e-01 3.764047439e-02 2.579105455e-01 7.973140177e-01 0.000000000e+00 0.000000000e+00 0.000000000e+00 0.000000000e+00
1.550000e+09 -5.720973944e-01 3.770601951e-02 2.527862639e-01 7.986965401e-01 0.000000000e+00 0.000000000e+00 0.000000000e+00 0.000000000e+00
1.560000e+09 -5.723382993e-01 3.776973693e-02 2.476757123e-01 8.000402883e-01 0.000000000e+00 0.000000000e+00 0.000000000e+00 0.000000000e+00
1.570000e+09 -5.725785448e-01 3.783164512e-02 2.425791522e-01 8.013456542e-01 0.000000000e+00 0.000000000e+00 0.000000000e+00 0.000000000e+00
1.580000e+09 -5.728181191e-01 3.789176251e-02 2.374968376e-01 8.026130289e-01 0.000000000e+00 0.000000000e+00 0.000000000e+00 0.000000000e+00
1.590000e+09 -5.730570103e-01 3.795010752e-02 2.324290155e-01 8.038428033e-01 0.000000000e+00 0.000000000e+00 0.000000000e+00 0.000000000e+00
1.600000e+09 -5.732952073e-01 3.800669854e-02 2.273759258e-01 8.050353676e-01 0.000000000e+00 0.000000000e+00 0.000000000e+00 0.000000000e+00
1.610000e+09 -5.735326990e-01 3.806155394e-02 2.223378018e-01 8.061911111e-01 0.000000000e+00 0.000000000e+00 0.000000000e+00 0.000000000e+00
1.620000e+09 -5.737694748e-01 3.811469201e-02 2.173148697e-01 8.073104225e-01 0.000000000e+00 0.000000000e+00 0.000000000e+00 0.000000000e+00
1.630000e+09 -5.740055243e-01 3.816613104e-02 2.123073491e-01 8.083936895e-01 0.000000000e+00 0.000000000e+00 0.000000000e+00 0.000000000e+00
1.640000e+09 -5.742408375e-01 3.821588926e-02 2.073154530e-01 8.094412989e-01 0.000000000e+00 0.000000000e+00 0.000000000e+00 0.000000000e+00
1.650000e+09 -5.744754046e-01 3.826398484e-02 2.023393878e-01 8.104536362e-01 0.000000000e+00 0.000000000e+00 0.000000000e+00 0.000000000e+00
1.660000e+09 -5.747092162e-01 3.831043589e-02 1.973793536e-01 8.114310860e-01 0.000000000e+00 0.000000000e+00 0.000000000e+00 0.000000000e+00
1.670000e+09 -5.749422633e-01 3.835526049e-02 1.924355438e-01 8.123740314e-01 0.000000000e+00 0.000000000e+00 0.000000000e+00 0.000000000e+00
1.680000e+09 -5.751745369e-01 3.839847663e-02 1.875081460e-01 8.132828545e-01 0.000000000e+00 0.000000000e+00 0.000000000e+00 0.000000000e+00
1.690000e+09 -5.754060285e-01 3.844010225e-02 1.825973414e-01 8.141579357e-01 0.000000000e+00 0.000000000e+00 0.000000000e+00 0.000000000e+00
1.700000e+09 -5.756367299e-01 3.848015522e-02 1.777033050e-01 8.149996541e-01 0.000000000e+00 0.000000000e+00 0.000000000e+00 0.000000000e+00
1.710000e+09 -5.758666330e-01 3.851865332e-02 1.728262060e-01 8.158083871e-01 0.000000000e+00 0.000000000e+00 0.000000000e+00 0.000000000e+00
1.720000e+09 -5.760957303e-01 3.855561427e-02 1.679662078e-01 8.165845107e-01 0.000000000e+00 0.000000000e+00 0.000000000e+00 0.000000000e+00
1.730000e+09 -5.763240142e-01 3.859105571e-02 1.631234677e-01 8.173283991e-01 0.000000000e+00 0.000000000e+00 0.000000000e+00 0.000000000e+00
1.740000e+09 -5.765514777e-01 3.862499520e-02 1.582981376e-01 8.180404249e-01 0.000000000e+00 0.000000000e+00 0.000000000e+00 0.000000000e+00
1.750000e+09 -5.767781138e-01 3.865745020e-02 1.534903636e-01 8.187209586e-01 0.000000000e+00 0.000000000e+00 0.000000000e+00 0.000000000e+00
1.760000e+09 -5.770039158e-01 3.868843811e-02 1.487002862e-01 8.193703693e-01 0.000000000e+00 0.000000000e+00 0.000000000e+00 0.000000000e+00
1.770000e+09 -5.772288776e-01 3.871797622e-02 1.439280408e-01 8.199890237e-01 0.000000000e+00 0.000000000e+00 0.000000000e+00 0.000000000e+00
1.780000e+09 -5.774529928e-01 3.874608172e-02 1.391737571e-01 8.205772870e-01 0.000000000e+00 0.000000000e+00 0.000000000e+00 0.000000000e+00
1.790000e+09 -5.776762556e-01 3.877277174e-02 1.344375598e-01 8.211355220e-01 0.000000000e+00 0.000000000e+00 0.000000000e+00 0.000000000e+00
1.800000e+09 -5.778986605e-01 3.879806327e-02 1.297195682e-01 8.216640898e-01 0.000000000e+00 0.000000000e+00 0.000000000e+00 0.000000000e+00
1.810000e+09 -5.781202020e-01 3.882197323e-02 1.250198967e-01 8.221633491e-01 0.000000000e+00 0.000000000e+00 0.000000000e+00 0.000000000e+00
1.820000e+09 -5.783408749e-01 3.884451844e-02 1.203386547e-01 8.226336566e-01 0.000000000e+00 0.000000000e+00 0.000000000e+00 0.000000000e+00
1.830000e+09 -5.785606744e-01 3.886571559e-02 1.156759467e-01 8.230753668e-01 0.000000000e+00 0.000000000e+00 0.000000000e+00 0.000000000e+00
1.840000e+09 -5.787795957e-01 3.888558128e-02 1.110318722e-01 8.234888319e-01 0.000000000e+00 0.000000000e+00 0.000000000e+00 0.000000000e+00
1.850000e+09 -5.789976343e-01 3.890413203e-02 1.064065264e-01 8.238744019e-01 0.000000000e+00 0.000000000e+00 0.000000000e+00 0.000000000e+00
1.860000e+09 -5.792147861e-01 3.892138420e-02 1.017999993e-01 8.242324246e-01 0.000000000e+00 0.000000000e+00 0.000000000e+00 0.000000000e+00
1.870000e+09 -5.794310469e-01 3.893735408e-02 9.721237689e-02 8.245632451e-01 0.000000000e+00 0.000000000e+00 0.000000000e+00 0.000000000e+00
1.880000e+09 -5.796464130e-01 3.895205783e-02 9.264374032e-02 8.248672065e-01 0.000000000e+00 0.000000000e+00 0.000000000e+00 0.000000000e+00
1.890000e+09 -5.798608807e-01 3.896551150e-02 8.809416652e-02 8.251446494e-01 0.000000000e+00 0.000000000e+00 0.000000000e+00 0.000000000e+00
1.900000e+09 -5.800744465e-01 3.897773103e-02 8.356372808e-02 8.253959119e-01 0.000000000e+00 0.000000000e+00 0.000000000e+00 0.000000000e+00
1.910000e+09 -5.802871074e-01 3.898873223e-02 7.905249338e-02 8.256213297e-01 0.000000000e+00 0.000000000e+00 0.000000000e+00 0.000000000e+00
1.920000e+09 -5.804988601e-01 3.899853082e-02 7.456052667e-02 8.258212359e-01 0.000000000e+00 0.000000000e+00 0.000000000e+00 0.000000000e+00
1.930000e+09 -5.807097020e-01 3.900714238e-02 7.008788815e-02 8.259959612e-01 0.000000000e+00 0.000000000e+00 0.000000000e+00 0.000000000e+00
1.940000e+09 -5.809196303e-01 3.901458237e-02 6.563463402e-02 8.261458339e-01 0.000000000e+00 0.000000000e+00 0.000000000e+00 0.000000000e+00
1.950000e+09 -5.811286425e-01 3.902086614e-02 6.120081661e-02 8.262711794e-01 0.000000000e+00 0.000000000e+00 0.000000000e+00 0.000000000e+00
1.960000e+09 -5.813367365e-01 3.902600892e-02 5.678648445e-02 8.263723209e-01 0.000000000e+00 0.000000000e+00 0.000000000e+00 0.000000000e+00
1.970000e+09 -5.815439100e-01 3.903002580e-02 5.239168229e-02 8.264495787e-01 0.000000000e+00 0.000000000e+00 0.000000000e+00 0.000000000e+00
1.980000e+09 -5.817501612e-01 3.903293177e-02 4.801645126e-02 8.265032708e-01 0.000000000e+00 0.000000000e+00 0.000000000e+00 0.000000000e+00
1.990000e+09 -5.819554882e-01 3.903474168e-02 4.366082889e-02 8.265337123e-01 0.000000000e+00 0.000000000e+00 0.000000000e+00 0.000000000e+00
2.000000e+09 -5.821598896e-01 3.903547027e-02 3.932484920e-02 8.265412158e-01 0.000000000e+00 0.000000000e+00 0.000000000e+00 0.000000000e+00
2.010000e+09 -5.823633637e-01 3.903513214e-02 3.500854279e-02 8.265260913e-01 0.000000000e+00 0.000000000e+00 0.000000000e+00 0.000000000e+00
2.020000e+09 -5.825659094e-01 3.903374178e-02 3.071193689e-02 8.264886461e-01 0.000000000e+00 0.000000000e+00 0.000000000e+00 0.000000000e+00
2.030000e+09 -5.827675255e-01 3.903131355e-02 2.643505544e-02 8.264291848e-01 0.000000000e+00 0.000000000e+00 0.000000000e+00 0.000000000e+00
2.040000e+09 -5.829682110e-01 3.902786167e-02 2.217791917e-02 8.263480094e-01 0.000000000e+00 0.000000000e+00 0.000000000e+00 0.000000000e+00
2.050000e+09 -5.831679651e-01 3.902340025e-02 1.794054567e-02 8.262454191e-01 0.000000000e+00 0.000000000e+00 0.000000000e+00 0.000000000e+00
2.060000e+09 -5.833667872e-01 3.901794327e-02 1.372294945e-02 8.261217105e-01 0.000000000e+00 0.000000000e+00 0.000000000e+00 0.000000000e+00
2.070000e+09 -5.835646766e-01 3.901150458e-02 9.525142019e-03 8.259771776e-01 0.000000000e+00 0.000000000e+00 0.000000000e+00 0.000000000e+00
2.080000e+09 -5.837616330e-01 3.900409791e-02 5.347131947e-03 8.258121114e-01 0.000000000e+00 0.000000000e+00 0.000000000e+00 0.000000000e+00
2.090000e+09 -5.839576560e-01 3.899573685e-02 1.188924935e-03 8.256268006e-01 0.000000000e+00 0.000000000e+00 0.000000000e+00 0.000000000e+00
2.100000e+09 -5.841527457e-01 3.898643487e-02 -2.949476119e-03 8.254215309e-01 0.000000000e+00 0.000000000e+00 0.000000000e+00 0.000000000e+00
2.110000e+09 -5.843469019e-01 3.897620531e-02 -7.068071053e-03 8.251965854e-01 0.000000000e+00 0.000000000e+00 0.000000000e+00 0.000000000e+00
2.120000e+09 -5.845401248e-01 3.896506139e-02 -1.116686238e-02 8.249522445e-01 0.000000000e+00 0.000000000e+00 0.000000000e+00 0.000000000e+00
2.130000e+09 -5.847324146e-01 3.895301620e-02 -1.524585522e-02 8.246887860e-01 0.000000000e+00 0.000000000e+00 0.000000000e+00 0.000000000e+00
2.140000e+09 -5.849237716e-01 3.894008270e-02 -1.930505725e-02 8.244064847e-01 0.000000000e+00 0.000000000e+00 0.000000000e+00 0.000000000e+00
2.150000e+09 -5.851141964e-01 3.892627372e-02 -2.334447861e-02 8.241056130e-01 0.000000000e+00 0.000000000e+00 0.000000000e+00 0.000000000e+00
2.160000e+09 -5.853036896e-01 3.891160196e-02 -2.736413189e-02 8.237864406e-01 0.000000000e+00 0.000000000e+00 0.000000000e+00 0.000000000e+00
2.170000e+09 -5.854922518e-01 3.889608001e-02 -3.136403203e-02 8.234492343e-01 0.000000000e+00 0.000000000e+00 0.000000000e+00 0.000000000e+00
2.180000e+09 -5.856798838e-01 3.887972033e-02 -3.534419627e-02 8.230942583e-01 0.000000000e+00 0.000000000e+00 0.000000000e+00 0.000000000e+00
2.190000e+09 -5.858665867e-01 3.886253523e-02 -3.930464411e-02 8.227217742e-01 0.000000000e+00 0.000000000e+00 0.000000000e+00 0.000000000e+00
2.200000e+09 -5.860523613e-01 3.884453691e-02 -4.324539724e-02 8.223320410e-01 0.000000000e+00 0.000000000e+00 0.000000000e+00 0.000000000e+00
2.210000e+09 -5.862372089e-01 3.882573747e-02 -4.716647947e-02 8.219253147e-01 0.000000000e+00 0.000000000e+00 0.000000000e+00 0.000000000e+00
2.220000e+09 -5.864211305e-01 3.880614883e-02 -5.106791670e-02 8.215018490e-01 0.000000000e+00 0.000000000e+00 0.000000000e+00 0.000000000e+00
2.230000e+09 -5.866041277e-01 3.878578284e-02 -5.494973684e-02 8.210618948e-01 0.000000000e+00 0.000000000e+00 0.000000000e+00 0.000000000e+00
2.240000e+09 -5.867862017e-01 3.876465118e-02 -5.881196980e-02 8.206057004e-01 0.000000000e+00 0.000000000e+00 0.000000000e+00 0.000000000e+00
2.250000e+09 -5.869673540e-01 3.874276545e-02 -6.265464738e-02 8.201335114e-01 0.000000000e+00 0.000000000e+00 0.000000000e+00 0.000000000e+00
2.260000e+09 -5.871475864e-01 3.872013708e-02 -6.647780326e-02 8.196455708e-01 0.000000000e+00 0.000000000e+00 0.000000000e+00 0.000000000e+00
2.270000e+09 -5.873269003e-01 3.869677742e-02 -7.028147291e-02 8.191421190e-01 0.000000000e+00 0.000000000e+00 0.000000000e+00 0.000000000e+00
2.280000e+09 -5.875052976e-01 3.867269766e-02 -7.406569361e-02 8.186233938e-01 0.000000000e+00 0.000000000e+00 0.000000000e+00 0.000000000e+00
2.290000e+09 -5.876827801e-01 3.864790891e-02 -7.783050431e-02 8.180896306e-01 0.000000000e+00 0.000000000e+00 0.000000000e+00 0.000000000e+00
2.300000e+09 -5.878593497e-01 3.862242211e-02 -8.157594566e-02 8.175410618e-01 0.000000000e+00 0.000000000e+00 0.000000000e+00 0.000000000e+00
2.310000e+09 -5.880350084e-01 3.859624811e-02 -8.530205990e-02 8.169779177e-01 0.000000000e+00 0.000000000e+00 0.000000000e+00 0.000000000e+00
2.320000e+09 -5.882097584e-01 3.856939765e-02 -8.900889087e-02 8.164004257e-01 0.000000000e+00 0.000000000e+00 0.000000000e+00 0.000000000e+00
2.330000e+09 -5.883836016e-01 3.854188132e-02 -9.269648393e-02 8.158088109e-01 0.000000000e+00 0.000000000e+00 0.000000000e+00 0.000000000e+00
2.340000e+09 -5.885565403e-01 3.851370960e-02 -9.636488592e-02 8.152032958e-01 0.000000000e+00 0.000000000e+00 0.000000000e+00 0.000000000e+00
2.350000e+09 -5.887285769e-01 3.848489287e-02 -1.000141451e-01 8.145841003e-01 0.000000000e+00 0.000000000e+00 0.000000000e+00 0.000000000e+00
2.360000e+09 -5.888997136e-01 3.845544138e-02 -1.036443112e-01 8.139514419e-01 0.000000000e+00 0.000000000e+00 0.000000000e+00 0.000000000e+00
2.370000e+09 -5.890699528e-01 3.842536526e-02 -1.072554351e-01 8.133055356e-01 0.000000000e+00 0.000000000e+00 0.000000000e+00 0.000000000e+00
2.380000e+09 -5.892392970e-01 3.839467452e-02 -1.108475693e-01 8.126465941e-01 0.000000000e+00 0.000000000e+00 0.000000000e+00 0.000000000e+00
2.390000e+09 -5.894077488e-01 3.836337907e-02 -1.144207673e-01 8.119748273e-01 0.000000000e+00 0.000000000e+00 0.000000000e+00 0.000000000e+00
2.400000e+09 -5.895753106e-01 3.833148870e-02 -1.179750839e-01 8.112904429e-01 0.000000000e+00 0.000000000e+00 0.000000000e+00 0.000000000e+00
2.410000e+09 -5.897419852e-01 3.829901307e-02 -1.215105753e-01 8.105936462e-01 0.000000000e+00 0.000000000e+00 0.000000000e+00 0.000000000e+00
2.420000e+09 -5.899077753e-01 3.826596176e-02 -1.250272985e-01 8.098846401e-01 0.000000000e+00 0.000000000e+00 0.000000000e+00 0.000000000e+00
2.430000e+09 -5.900726836e-01 3.823234419e-02 -1.285253118e-01 8.091636250e-01 0.000000000e+00 0.000000000e+00 0.000000000e+00 0.000000000e+00
2.440000e+09 -5.902367128e-01 3.819816973e-02 -1.320046746e-01 8.084307990e-01 0.000000000e+00 0.000000000e+00 0.000000000e+00 0.000000000e+00
2.450000e+09 -5.903998659e-01 3.816344758e-02 -1.354654473e-01 8.076863580e-01 0.000000000e+00 0.000000000e+00 0.000000000e+00 0.000000000e+00
2.460000e+09 -5.905621457e-01 3.812818687e-02 -1.389076912e-01 8.069304952e-01 0.000000000e+00 0.000000000e+00 0.000000000e+00 0.000000000e+00
2.470000e+09 -5.907235551e-01 3.809239660e-02 -1.423314688e-01 8.061634019e-01 0.000000000e+00 0.000000000e+00 0.000000000e+00 0.000000000e+00
2.480000e+09 -5.908840972e-01 3.805608567e-02 -1.457368434e-01 8.053852668e-01 0.000000000e+00 0.000000000e+00 0.000000000e+00 0.000000000e+00
2.490000e+09 -5.910437750e-01 3.801926287e-02 -1.491238791e-01 8.045962765e-01 0.000000000e+00 0.000000000e+00 0.000000000e+00 0.000000000e+00
2.500000e+09 -5.912025915e-01 3.798193689e-02 -1.524926411e-01 8.037966153e-01 0.000000000e+00 0.000000000e+00 0.000000000e+00 0.000000000e+00
2.510000e+09 -5.913605499e-01 3.794411631e-02 -1.558431952e-01 8.029864653e-01 0.000000000e+00 0.000000000e+00 0.000000000e+00 0.000000000e+00
2.520000e+09 -5.915176532e-01 3.790580960e-02 -1.591756081e-01 8.021660061e-01 0.000000000e+00 0.000000000e+00 0.000000000e+00 0.000000000e+00
2.530000e+09 -5.916739047e-01 3.786702513e-02 -1.624899473e-01 8.013354155e-01 0.000000000e+00 0.000000000e+00 0.000000000e+00 0.000000000e+00
2.540000e+09 -5.918293076e-01 3.782777116e-02 -1.657862810e-01 8.004948688e-01 0.000000000e+00 0.000000000e+00 0.000000000e+00 0.000000000e+00
2.550000e+09 -5.919838651e-01 3.778805588e-02 -1.690646782e-01 7.996445394e-01 0.000000000e+00 0.000000000e+00 0.000000000e+00 0.000000000e+00
2.560000e+09 -5.921375805e-01 3.774788732e-02 -1.723252085e-01 7.987845982e-01 0.000000000e+00 0.000000000e+00 0.000000000e+00 0.000000000e+00
2.570000e+09 -5.922904571e-01 3.770727347e-02 -1.755679421e-01 7.979152143e-01 0.000000000e+00 0.000000000e+00 0.000000000e+00 0.000000000e+00
2.580000e+09 -5.924424983e-01 3.766622219e-02 -1.787929499e-01 7.970365546e-01 0.000000000e+00 0.000000000e+00 0.000000000e+00 0.000000000e+00
2.590000e+09 -5.925937074e-01 3.762474123e-02 -1.820003034e-01 7.961487838e-01 0.000000000e+00 0.000000000e+00 0.000000000e+00 0.000000000e+00
2.600000e+09 -5.927440878e-01 3.758283827e-02 -1.851900748e-01 7.952520646e-01 0.000000000e+00 0.000000000e+00 0.000000000e+00 0.000000000e+00
2.610000e+09 -5.928936429e-01 3.754052088e-02 -1.883623365e-01 7.943465576e-01 0.000000000e+00 0.000000000e+00 0.000000000e+00 0.000000000e+00
2.620000e+09 -5.930423762e-01 3.749779652e-02 -1.915171618e-01 7.934324214e-01 0.000000000e+00 0.000000000e+00 0.000000000e+00 0.000000000e+00
2.630000e+09 -5.931902912e-01 3.745467259e-02 -1.946546242e-01 7.925098125e-01 0.000000000e+00 0.000000000e+00 0.000000000e+00 0.000000000e+00
2.640000e+09 -5.933373913e-01 3.741115636e-02 -1.977747979e-01 7.915788857e-01 0.000000000e+00 0.000000000e+00 0.000000000e+00 0.000000000e+00
2.650000e+09 -5.934836801e-01 3.736725503e-02 -2.008777574e-01 7.906397934e-01 0.000000000e+00 0.000000000e+00 0.000000000e+00 0.000000000e+00
2.660000e+09 -5.936291611e-01 3.732297569e-02 -2.039635777e-01 7.896926863e-01 0.000000000e+00 0.000000000e+00 0.000000000e+00 0.000000000e+00
2.670000e+09 -5.937738378e-01 3.727832536e-02 -2.070323341e-01 7.887377130e-01 0.000000000e+00 0.000000000e+00 0.000000000e+00 0.000000000e+00
2.680000e+09 -5.939177138e-01 3.723331094e-02 -2.100841025e-01 7.877750204e-01 0.000000000e+00 0.000000000e+00 0.000000000e+00 0.000000000e+00
2.690000e+09 -5.940607927e-01 3.718793927e-02 -2.131189589e-01 7.868047532e-01 0.000000000e+00 0.000000000e+00 0.000000000e+00 0.000000000e+00
2.700000e+09 -5.942030781e-01 3.714221708e-02 -2.161369797e-01 7.858270545e-01 0.000000000e+00 0.000000000e+00 0.000000000e+00 0.000000000e+00
2.710000e+09 -5.943445736e-01 3.709615102e-02 -2.191382418e-01 7.848420654e-01 0.000000000e+00 0.000000000e+00 0.000000000e+00 0.000000000e+00
2.720000e+09 -5.944852829e-01 3.704974766e-02 -2.221228222e-01 7.838499251e-01 0.000000000e+00 0.000000000e+00 0.000000000e+00 0.000000000e+00
2.730000e+09 -5.946252095e-01 3.700301348e-02 -2.250907982e-01 7.828507710e-01 0.000000000e+00 0.000000000e+00 0.000000000e+00 0.000000000e+00
2.740000e+09 -5.947643572e-01 3.695595485e-02 -2.280422474e-01 7.818447387e-01 0.000000000e+00 0.000000000e+00 0.000000000e+00 0.000000000e+00
2.750000e+09 -5.949027296e-01 3.690857810e-02 -2.309772477e-01 7.808319621e-01 0.000000000e+00 0.000000000e+00 0.000000000e+00 0.000000000e+00
2.760000e+09 -5.950403303e-01 3.686088943e-02 -2.338958770e-01 7.798125732e-01 0.000000000e+00 0.000000000e+00 0.000000000e+00 0.000000000e+00
2.770000e+09 -5.951771632e-01 3.681289500e-02 -2.367982138e-01 7.787867022e-01 0.000000000e+00 0.000000000e+00 0.000000000e+00 0.000000000e+00
2.780000e+09 -5.953132317e-01 3.676460086e-02 -2.396843363e-01 7.777544778e-01 0.000000000e+00 0.000000000e+00 0.000000000e+00 0.000000000e+00
2.790000e+09 -5.954485398e-01 3.671601299e-02 -2.425543232e-01 7.767160267e-01 0.000000000e+00 0.000000000e+00 0.000000000e+00 0.000000000e+00
2.800000e+09 -5.955830910e-01 3.666713728e-02 -2.454082532e-01 7.756714741e-01 0.000000000e+00 0.000000000e+00 0.000000000e+00 0.000000000e+00
2.810000e+09 -5.957168892e-01 3.661797955e-02 -2.482462052e-01 7.746209434e-01 0.000000000e+00 0.000000000e+00 0.000000000e+00 0.000000000e+00
2.820000e+09 -5.958499379e-01 3.656854554e-02 -2.510682583e-01 7.735645564e-01 0.000000000e+00 0.000000000e+00 0.000000000e+00 0.000000000e+00
2.830000e+09 -5.959822410e-01 3.651884092e-02 -2.538744915e-01 7.725024331e-01 0.000000000e+00 0.000000000e+00 0.000000000e+00 0.000000000e+00
2.840000e+09 -5.961138022e-01 3.646887126e-02 -2.566649840e-01 7.714346923e-01 0.000000000e+00 0.000000000e+00 0.000000000e+00 0.000000000e+00
2.850000e+09 -5.962446251e-01 3.641864208e-02 -2.594398151e-01 7.703614506e-01 0.000000000e+00 0.000000000e+00 0.000000000e+00 0.000000000e+00
2.860000e+09 -5.963747136e-01 3.636815881e-02 -2.621990641e-01 7.692828234e-01 0.000000000e+00 0.000000000e+00 0.000000000e+00 0.000000000e+00
2.870000e+09 -5.965040714e-01 3.631742680e-02 -2.649428104e-01 7.681989244e-01 0.000000000e+00 0.000000000e+00 0.000000000e+00 0.000000000e+00
2.880000e+09 -5.966327023e-01 3.626645135e-02 -2.676711334e-01 7.671098657e-01 0.000000000e+00 0.000000000e+00 0.000000000e+00 0.000000000e+00
2.890000e+09 -5.967606098e-01 3.621523767e-02 -2.703841125e-01 7.660157581e-01 0.000000000e+00 0.000000000e+00 0.000000000e+00 0.000000000e+00
2.900000e+09 -5.968877979e-01 3.616379090e-02 -2.730818271e-01 7.649167106e-01 0.000000000e+00 0.000000000e+00 0.000000000e+00 0.000000000e+00
2.910000e+09 -5.970142702e-01 3.611211610e-02 -2.757643567e-01 7.638128307e-01 0.000000000e+00 0.000000000e+00 0.000000000e+00 0.000000000e+00
2.920000e+09 -5.971400305e-01 3.606021829e-02 -2.784317806e-01 7.627042245e-01 0.000000000e+00 0.000000000e+00 0.000000000e+00 0.000000000e+00
2.930000e+09 -5.972650826e-01 3.600810238e-02 -2.810841782e-01 7.615909968e-01 0.000000000e+00 0.000000000e+00 0.000000000e+00 0.000000000e+00
2.940000e+09 -5.973894301e-01 3.595577325e-02 -2.837216289e-01 7.604732506e-01 0.000000000e+00 0.000000000e+00 0.000000000e+00 0.000000000e+00
2.950000e+09 -5.975130768e-01 3.590323569e-02 -2.863442119e-01 7.593510877e-01 0.000000000e+00 0.000000000e+00 0.000000000e+00 0.000000000e+00
2.960000e+09 -5.976360264e-01 3.585049442e-02 -2.889520064e-01 7.582246084e-01 0.000000000e+00 0.000000000e+00 0.000000000e+00 0.000000000e+00
2.970000e+09 -5.977582826e-01 3.579755411e-02 -2.915450915e-01 7.570939116e-01 0.000000000e+00 0.000000000e+00 0.000000000e+00 0.000000000e+00
2.980000e+09 -5.978798493e-01 3.574441934e-02 -2.941235464e-01 7.559590948e-01 0.000000000e+00 0.000000000e+00 0.000000000e+00 0.000000000e+00
2.990000e+09 -5.980007300e-01 3.569109466e-02 -2.966874499e-01 7.548202541e-01 0.000000000e+00 0.000000000e+00 0.000000000e+00 0.000000000e+00
3.000000e+09 -5.981209286e-01 3.563758453e-02 -2.992368809e-01 7.536774844e-01 0.000000000e+00 0.000000000e+00 0.000000000e+00 0.000000000e+00
