! rfsim (KiCad + openEMS)
# HZ S RI R 50
5.000000e+08 -9.971285631e-01 5.423762815e-02 1.502247170e-03 1.881284129e-02 1.565624661e-03 1.879847973e-02 -9.974998217e-01 5.560304536e-02
5.100000e+08 -9.970243527e-01 5.533415396e-02 1.561034793e-03 1.919579637e-02 1.627837118e-03 1.918189432e-02 -9.974051919e-01 5.672744033e-02
5.200000e+08 -9.969182058e-01 5.643013380e-02 1.620963793e-03 1.957922267e-02 1.691295051e-03 1.956569118e-02 -9.973087302e-01 5.785145781e-02
5.300000e+08 -9.968101391e-01 5.752561101e-02 1.682017996e-03 1.996313848e-02 1.755978977e-03 1.994988811e-02 -9.972104739e-01 5.897513285e-02
5.400000e+08 -9.967001674e-01 5.862063200e-02 1.744183000e-03 2.034756222e-02 1.821871288e-03 2.033450325e-02 -9.971104575e-01 6.009850325e-02
5.500000e+08 -9.965883036e-01 5.971524583e-02 1.807446156e-03 2.073251245e-02 1.888956235e-03 2.071955512e-02 -9.970087131e-01 6.122160925e-02
5.600000e+08 -9.964745587e-01 6.080950382e-02 1.871796548e-03 2.111800776e-02 1.957219909e-03 2.110506250e-02 -9.969052698e-01 6.234449319e-02
5.700000e+08 -9.963589416e-01 6.190345919e-02 1.937224961e-03 2.150406683e-02 2.026650212e-03 2.149104440e-02 -9.968001540e-01 6.346719920e-02
5.800000e+08 -9.962414594e-01 6.299716667e-02 2.003723846e-03 2.189070836e-02 2.097236822e-03 2.187752005e-02 -9.966933899e-01 6.458977291e-02
5.900000e+08 -9.961221176e-01 6.409068219e-02 2.071287284e-03 2.227795105e-02 2.168971156e-03 2.226450879e-02 -9.965849986e-01 6.571226123e-02
6.000000e+08 -9.960009196e-01 6.518406260e-02 2.139910937e-03 2.266581360e-02 2.241846327e-03 2.265203012e-02 -9.964749992e-01 6.683471206e-02
6.100000e+08 -9.958778673e-01 6.627736534e-02 2.209592007e-03 2.305431465e-02 2.315857099e-03 2.304010360e-02 -9.963634079e-01 6.795717406e-02
6.200000e+08 -9.957529609e-01 6.737064826e-02 2.280329187e-03 2.344347281e-02 2.390999833e-03 2.342874882e-02 -9.962502390e-01 6.907969651e-02
6.300000e+08 -9.956261988e-01 6.846396930e-02 2.352122605e-03 2.383330660e-02 2.467272443e-03 2.381798541e-02 -9.961355041e-01 7.020232901e-02
6.400000e+08 -9.954975780e-01 6.955738632e-02 2.424973777e-03 2.422383448e-02 2.544674335e-03 2.420783298e-02 -9.960192127e-01 7.132512139e-02
6.500000e+08 -9.953670940e-01 7.065095691e-02 2.498885552e-03 2.461507477e-02 2.623206360e-03 2.459831110e-02 -9.959013722e-01 7.244812352e-02
6.600000e+08 -9.952347408e-01 7.174473818e-02 2.573862056e-03 2.500704571e-02 2.702870752e-03 2.498943927e-02 -9.957819880e-01 7.357138513e-02
6.700000e+08 -9.951005110e-01 7.283878661e-02 2.649908637e-03 2.539976541e-02 2.783671074e-03 2.538123692e-02 -9.956610632e-01 7.469495570e-02
6.800000e+08 -9.949643961e-01 7.393315791e-02 2.727031812e-03 2.579325183e-02 2.865612162e-03 2.577372338e-02 -9.955385994e-01 7.581888436e-02
6.900000e+08 -9.948263861e-01 7.502790687e-02 2.805239211e-03 2.618752280e-02 2.948700069e-03 2.616691783e-02 -9.954145960e-01 7.694321972e-02
7.000000e+08 -9.946864697e-01 7.612308728e-02 2.884539518e-03 2.658259600e-02 3.032942005e-03 2.656083934e-02 -9.952890508e-01 7.806800982e-02
7.100000e+08 -9.945446349e-01 7.721875178e-02 2.964942425e-03 2.697848894e-02 3.118346284e-03 2.695550683e-02 -9.951619600e-01 7.919330201e-02
7.200000e+08 -9.944008683e-01 7.831495179e-02 3.046458570e-03 2.737521898e-02 3.204922269e-03 2.735093904e-02 -9.950333181e-01 8.031914287e-02
7.300000e+08 -9.942551554e-01 7.941173745e-02 3.129099492e-03 2.777280331e-02 3.292680314e-03 2.774715454e-02 -9.949031180e-01 8.144557817e-02
7.400000e+08 -9.941074810e-01 8.050915751e-02 3.212877571e-03 2.817125893e-02 3.381631715e-03 2.814417173e-02 -9.947713515e-01 8.257265277e-02
7.500000e+08 -9.939578290e-01 8.160725932e-02 3.297805986e-03 2.857060271e-02 3.471788651e-03 2.854200881e-02 -9.946380086e-01 8.370041058e-02
7.600000e+08 -9.938061822e-01 8.270608875e-02 3.383898659e-03 2.897085130e-02 3.563164141e-03 2.894068376e-02 -9.945030783e-01 8.482889453e-02
7.700000e+08 -9.936525227e-01 8.380569018e-02 3.471170214e-03 2.937202121e-02 3.655771988e-03 2.934021440e-02 -9.943665483e-01 8.595814650e-02
7.800000e+08 -9.934968321e-01 8.490610643e-02 3.559635922e-03 2.977412875e-02 3.749626731e-03 2.974061831e-02 -9.942284053e-01 8.708820732e-02
7.900000e+08 -9.933390911e-01 8.600737879e-02 3.649311666e-03 3.017719008e-02 3.844743601e-03 3.014191287e-02 -9.940886346e-01 8.821911672e-02
8.000000e+08 -9.931792797e-01 8.710954698e-02 3.740213890e-03 3.058122118e-02 3.941138473e-03 3.054411524e-02 -9.939472209e-01 8.935091333e-02
8.100000e+08 -9.930173775e-01 8.821264912e-02 3.832359563e-03 3.098623784e-02 4.038827825e-03 3.094724240e-02 -9.938041476e-01 9.048363465e-02
8.200000e+08 -9.928533634e-01 8.931672179e-02 3.925766137e-03 3.139225572e-02 4.137828693e-03 3.135131107e-02 -9.936593976e-01 9.161731706e-02
8.300000e+08 -9.926872158e-01 9.042180000e-02 4.020451508e-03 3.179929029e-02 4.238158632e-03 3.175633779e-02 -9.935129525e-01 9.275199580e-02
8.400000e+08 -9.925189128e-01 9.152791719e-02 4.116433983e-03 3.220735689e-02 4.339835678e-03 3.216233888e-02 -9.933647937e-01 9.388770496e-02
8.500000e+08 -9.923484319e-01 9.263510527e-02 4.213732243e-03 3.261647068e-02 4.442878312e-03 3.256933046e-02 -9.932149015e-01 9.502447754e-02
8.600000e+08 -9.921757503e-01 9.374339464e-02 4.312365310e-03 3.302664668e-02 4.547305421e-03 3.297732844e-02 -9.930632558e-01 9.616234539e-02
8.700000e+08 -9.920008449e-01 9.485281421e-02 4.412352520e-03 3.343789978e-02 4.653136271e-03 3.338634853e-02 -9.929098356e-01 9.730133926e-02
8.800000e+08 -9.918236922e-01 9.596339143e-02 4.513713489e-03 3.385024471e-02 4.760390471e-03 3.379640626e-02 -9.927546197e-01 9.844148880e-02
8.900000e+08 -9.916442684e-01 9.707515230e-02 4.616468089e-03 3.426369610e-02 4.869087945e-03 3.420751694e-02 -9.925975863e-01 9.958282262e-02
9.000000e+08 -9.914625495e-01 9.818812146e-02 4.720636423e-03 3.467826843e-02 4.979248903e-03 3.461969573e-02 -9.924387130e-01 1.007253682e-01
9.100000e+08 -9.912785113e-01 9.930232218e-02 4.826238797e-03 3.509397608e-02 5.090893819e-03 3.503295758e-02 -9.922779771e-01 1.018691522e-01
9.200000e+08 -9.910921294e-01 1.004177764e-01 4.933295701e-03 3.551083331e-02 5.204043399e-03 3.544731729e-02 -9.921153557e-01 1.030141999e-01
9.300000e+08 -9.909033791e-01 1.015345049e-01 5.041827792e-03 3.592885429e-02 5.318718567e-03 3.586278950e-02 -9.919508252e-01 1.041605359e-01
9.400000e+08 -9.907122358e-01 1.026525270e-01 5.151855865e-03 3.634805307e-02 5.434940436e-03 3.627938865e-02 -9.917843621e-01 1.053081838e-01
9.500000e+08 -9.905186744e-01 1.037718610e-01 5.263400848e-03 3.676844365e-02 5.552730297e-03 3.669712909e-02 -9.916159423e-01 1.064571663e-01
9.600000e+08 -9.903226701e-01 1.048925241e-01 5.376483776e-03 3.719003992e-02 5.672109591e-03 3.711602497e-02 -9.914455417e-01 1.076075050e-01
9.700000e+08 -9.901241976e-01 1.060145324e-01 5.491125784e-03 3.761285570e-02 5.793099902e-03 3.753609033e-02 -9.912731359e-01 1.087592210e-01
9.800000e+08 -9.899232319e-01 1.071379009e-01 5.607348091e-03 3.803690476e-02 5.915722938e-03 3.795733909e-02 -9.910987003e-01 1.099123342e-01
9.900000e+08 -9.897197476e-01 1.082626435e-01 5.725171987e-03 3.846220081e-02 6.040000515e-03 3.837978504e-02 -9.909222102e-01 1.110668640e-01
1.000000e+09 -9.895137195e-01 1.093887734e-01 5.844618829e-03 3.888875750e-02 6.165954552e-03 3.880344184e-02 -9.907436409e-01 1.122228289e-01
1.010000e+09 -9.893051223e-01 1.105163029e-01 5.965710025e-03 3.931658844e-02 6.293607054e-03 3.922832308e-02 -9.905629672e-01 1.133802467e-01
1.020000e+09 -9.890939304e-01 1.116452431e-01 6.088467034e-03 3.974570722e-02 6.422980104e-03 3.965444223e-02 -9.903801643e-01 1.145391345e-01
1.030000e+09 -9.888801186e-01 1.127756048e-01 6.212911355e-03 4.017612740e-02 6.554095860e-03 4.008181266e-02 -9.901952069e-01 1.156995088e-01
1.040000e+09 -9.886636613e-01 1.139073978e-01 6.339064524e-03 4.060786251e-02 6.686976542e-03 4.051044770e-02 -9.900080700e-01 1.168613855e-01
1.050000e+09 -9.884445331e-01 1.150406311e-01 6.466948110e-03 4.104092608e-02 6.821644429e-03 4.094036058e-02 -9.898187283e-01 1.180247797e-01
1.060000e+09 -9.882227086e-01 1.161753133e-01 6.596583714e-03 4.147533164e-02 6.958121854e-03 4.137156446e-02 -9.896271566e-01 1.191897063e-01
1.070000e+09 -9.879981622e-01 1.173114523e-01 6.727992963e-03 4.191109272e-02 7.096431204e-03 4.180407247e-02 -9.894333296e-01 1.203561795e-01
1.080000e+09 -9.877708685e-01 1.184490554e-01 6.861197518e-03 4.234822284e-02 7.236594911e-03 4.223789767e-02 -9.892372220e-01 1.215242128e-01
1.090000e+09 -9.875408019e-01 1.195881294e-01 6.996219064e-03 4.278673559e-02 7.378635458e-03 4.267305308e-02 -9.890388086e-01 1.226938198e-01
1.100000e+09 -9.873079369e-01 1.207286807e-01 7.133079321e-03 4.322664453e-02 7.522575373e-03 4.310955171e-02 -9.888380641e-01 1.238650131e-01
1.110000e+09 -9.870722481e-01 1.218707154e-01 7.271800041e-03 4.366796329e-02 7.668437235e-03 4.354740651e-02 -9.886349633e-01 1.250378053e-01
1.120000e+09 -9.868337098e-01 1.230142389e-01 7.412403013e-03 4.411070553e-02 7.816243669e-03 4.398663044e-02 -9.884294809e-01 1.262122085e-01
1.130000e+09 -9.865922964e-01 1.241592565e-01 7.554910064e-03 4.455488495e-02 7.966017355e-03 4.442723645e-02 -9.882215916e-01 1.273882346e-01
1.140000e+09 -9.863479824e-01 1.253057733e-01 7.699343071e-03 4.500051530e-02 8.117781026e-03 4.486923747e-02 -9.880112703e-01 1.285658950e-01
1.150000e+09 -9.861007422e-01 1.264537938e-01 7.845723959e-03 4.544761040e-02 8.271557475e-03 4.531264644e-02 -9.877984917e-01 1.297452010e-01
1.160000e+09 -9.858505500e-01 1.276033227e-01 7.994074711e-03 4.589618414e-02 8.427369560e-03 4.575747632e-02 -9.875832306e-01 1.309261638e-01
1.170000e+09 -9.855973802e-01 1.287543642e-01 8.144417376e-03 4.634625045e-02 8.585240206e-03 4.620374009e-02 -9.873654619e-01 1.321087941e-01
1.180000e+09 -9.853412070e-01 1.299069226e-01 8.296774072e-03 4.679782338e-02 8.745192413e-03 4.665145072e-02 -9.871451604e-01 1.332931025e-01
1.190000e+09 -9.850820046e-01 1.310610020e-01 8.451167001e-03 4.725091702e-02 8.907249264e-03 4.710062127e-02 -9.869223009e-01 1.344790998e-01
1.200000e+09 -9.848197470e-01 1.322166062e-01 8.607618450e-03 4.770554559e-02 9.071433931e-03 4.755126477e-02 -9.866968583e-01 1.356667961e-01
1.210000e+09 -9.845544083e-01 1.333737395e-01 8.766150807e-03 4.816172336e-02 9.237769682e-03 4.800339436e-02 -9.864688074e-01 1.368562020e-01
1.220000e+09 -9.842859624e-01 1.345324056e-01 8.926786567e-03 4.861946472e-02 9.406279890e-03 4.845702317e-02 -9.862381230e-01 1.380473276e-01
1.230000e+09 -9.840143831e-01 1.356926087e-01 9.089548344e-03 4.907878418e-02 9.576988042e-03 4.891216442e-02 -9.860047800e-01 1.392401832e-01
1.240000e+09 -9.837396442e-01 1.368543527e-01 9.254458880e-03 4.953969633e-02 9.749917749e-03 4.936883139e-02 -9.857687531e-01 1.404347789e-01
1.250000e+09 -9.834617191e-01 1.380176418e-01 9.421541059e-03 5.000221588e-02 9.925092754e-03 4.982703740e-02 -9.855300171e-01 1.416311249e-01
1.260000e+09 -9.831805814e-01 1.391824802e-01 9.590817915e-03 5.046635765e-02 1.010253694e-02 5.028679587e-02 -9.852885468e-01 1.428292315e-01
1.270000e+09 -9.828962043e-01 1.403488723e-01 9.762312648e-03 5.093213661e-02 1.028227436e-02 5.074812028e-02 -9.850443167e-01 1.440291090e-01
1.280000e+09 -9.826085610e-01 1.415168225e-01 9.936048632e-03 5.139956782e-02 1.046432920e-02 5.121102420e-02 -9.847973015e-01 1.452307676e-01
1.290000e+09 -9.823176244e-01 1.426863356e-01 1.011204943e-02 5.186866648e-02 1.064872586e-02 5.167552127e-02 -9.845474758e-01 1.464342178e-01
1.300000e+09 -9.820233672e-01 1.438574165e-01 1.029033881e-02 5.233944794e-02 1.083548889e-02 5.214162523e-02 -9.842948139e-01 1.476394700e-01
1.310000e+09 -9.817257620e-01 1.450300702e-01 1.047094076e-02 5.281192766e-02 1.102464307e-02 5.260934991e-02 -9.840392903e-01 1.488465349e-01
1.320000e+09 -9.814247810e-01 1.462043020e-01 1.065387948e-02 5.328612125e-02 1.121621338e-02 5.307870924e-02 -9.837808792e-01 1.500554233e-01
1.330000e+09 -9.811203965e-01 1.473801174e-01 1.083917942e-02 5.376204446e-02 1.141022503e-02 5.354971726e-02 -9.835195548e-01 1.512661461e-01
1.340000e+09 -9.808125801e-01 1.485575225e-01 1.102686530e-02 5.423971318e-02 1.160670345e-02 5.402238811e-02 -9.832552910e-01 1.524787142e-01
1.350000e+09 -9.805013034e-01 1.497365231e-01 1.121696210e-02 5.471914347e-02 1.180567435e-02 5.449673602e-02 -9.829880618e-01 1.536931391e-01
1.360000e+09 -9.801865377e-01 1.509171258e-01 1.140949509e-02 5.520035152e-02 1.200716368e-02 5.497277536e-02 -9.827178409e-01 1.549094322e-01
1.370000e+09 -9.798682540e-01 1.520993372e-01 1.160448983e-02 5.568335366e-02 1.221119768e-02 5.545052061e-02 -9.824446018e-01 1.561276050e-01
1.380000e+09 -9.795464229e-01 1.532831643e-01 1.180197222e-02 5.616816641e-02 1.241780288e-02 5.592998634e-02 -9.821683179e-01 1.573476695e-01
1.390000e+09 -9.792210146e-01 1.544686146e-01 1.200196845e-02 5.665480641e-02 1.262700612e-02 5.641118729e-02 -9.818889623e-01 1.585696377e-01
1.400000e+09 -9.788919992e-01 1.556556956e-01 1.220450511e-02 5.714329048e-02 1.283883455e-02 5.689413827e-02 -9.816065080e-01 1.597935221e-01
1.410000e+09 -9.785593463e-01 1.568444154e-01 1.240960912e-02 5.763363561e-02 1.305331566e-02 5.737885427e-02 -9.813209278e-01 1.610193351e-01
1.420000e+09 -9.782230250e-01 1.580347824e-01 1.261730777e-02 5.812585891e-02 1.327047730e-02 5.786535036e-02 -9.810321940e-01 1.622470896e-01
1.430000e+09 -9.778830041e-01 1.592268052e-01 1.282762877e-02 5.861997769e-02 1.349034767e-02 5.835364177e-02 -9.807402790e-01 1.634767988e-01
1.440000e+09 -9.775392520e-01 1.604204930e-01 1.304060023e-02 5.911600941e-02 1.371295537e-02 5.884374385e-02 -9.804451547e-01 1.647084759e-01
1.450000e+09 -9.771917366e-01 1.616158553e-01 1.325625068e-02 5.961397170e-02 1.393832937e-02 5.933567209e-02 -9.801467928e-01 1.659421348e-01
1.460000e+09 -9.768404253e-01 1.628129018e-01 1.347460911e-02 6.011388235e-02 1.416649908e-02 5.982944210e-02 -9.798451645e-01 1.671777892e-01
1.470000e+09 -9.764852853e-01 1.640116427e-01 1.369570496e-02 6.061575930e-02 1.439749431e-02 6.032506966e-02 -9.795402410e-01 1.684154535e-01
1.480000e+09 -9.761262829e-01 1.652120886e-01 1.391956814e-02 6.111962069e-02 1.463134533e-02 6.082257065e-02 -9.792319929e-01 1.696551423e-01
1.490000e+09 -9.757633842e-01 1.664142505e-01 1.414622907e-02 6.162548479e-02 1.486808287e-02 6.132196111e-02 -9.789203906e-01 1.708968702e-01
1.500000e+09 -9.753965546e-01 1.676181396e-01 1.437571867e-02 6.213337006e-02 1.510773813e-02 6.182325720e-02 -9.786054039e-01 1.721406527e-01
1.510000e+09 -9.750257590e-01 1.688237676e-01 1.460806839e-02 6.264329512e-02 1.535034280e-02 6.232647525e-02 -9.782870025e-01 1.733865049e-01
1.520000e+09 -9.746509617e-01 1.700311466e-01 1.484331023e-02 6.315527874e-02 1.559592909e-02 6.283163169e-02 -9.779651556e-01 1.746344429e-01
1.530000e+09 -9.742721264e-01 1.712402889e-01 1.508147676e-02 6.366933986e-02 1.584452972e-02 6.333874313e-02 -9.776398317e-01 1.758844826e-01
1.540000e+09 -9.738892164e-01 1.724512074e-01 1.532260112e-02 6.418549760e-02 1.609617796e-02 6.384782629e-02 -9.773109993e-01 1.771366406e-01
1.550000e+09 -9.735021941e-01 1.736639151e-01 1.556671705e-02 6.470377123e-02 1.635090765e-02 6.435889805e-02 -9.769786261e-01 1.783909334e-01
1.560000e+09 -9.731110213e-01 1.748784256e-01 1.581385892e-02 6.522418015e-02 1.660875320e-02 6.487197540e-02 -9.766426794e-01 1.796473783e-01
1.570000e+09 -9.727156592e-01 1.760947527e-01 1.606406173e-02 6.574674398e-02 1.686974960e-02 6.538707549e-02 -9.763031261e-01 1.809059926e-01
1.580000e+09 -9.723160683e-01 1.773129105e-01 1.631736111e-02 6.627148243e-02 1.713393247e-02 6.590421560e-02 -9.759599324e-01 1.821667939e-01
1.590000e+09 -9.719122085e-01 1.785329136e-01 1.657379341e-02 6.679841542e-02 1.740133806e-02 6.642341316e-02 -9.756130642e-01 1.834298004e-01
1.600000e+09 -9.715040387e-01 1.797547767e-01 1.683339562e-02 6.732756298e-02 1.767200326e-02 6.694468570e-02 -9.752624866e-01 1.846950303e-01
1.610000e+09 -9.710915173e-01 1.809785149e-01 1.709620549e-02 6.785894531e-02 1.794596564e-02 6.746805092e-02 -9.749081642e-01 1.859625024e-01
1.620000e+09 -9.706746019e-01 1.822041438e-01 1.736226145e-02 6.839258275e-02 1.822326344e-02 6.799352661e-02 -9.745500611e-01 1.872322356e-01
1.630000e+09 -9.702532491e-01 1.834316790e-01 1.763160272e-02 6.892849579e-02 1.850393561e-02 6.852113072e-02 -9.741881407e-01 1.885042493e-01
1.640000e+09 -9.698274150e-01 1.846611365e-01 1.790426927e-02 6.946670504e-02 1.878802183e-02 6.905088132e-02 -9.738223656e-01 1.897785629e-01
1.650000e+09 -9.693970546e-01 1.858925327e-01 1.818030184e-02 7.000723128e-02 1.907556251e-02 6.958279658e-02 -9.734526980e-01 1.910551966e-01
1.660000e+09 -9.689621222e-01 1.871258839e-01 1.845974199e-02 7.055009538e-02 1.936659883e-02 7.011689480e-02 -9.730790993e-01 1.923341703e-01
1.670000e+09 -9.685225712e-01 1.883612071e-01 1.874263213e-02 7.109531837e-02 1.966117273e-02 7.065319442e-02 -9.727015302e-01 1.936155048e-01
1.680000e+09 -9.680783541e-01 1.895985192e-01 1.902901547e-02 7.164292138e-02 1.995932699e-02 7.119171395e-02 -9.723199507e-01 1.948992207e-01
1.690000e+09 -9.676294225e-01 1.908378375e-01 1.931893612e-02 7.219292568e-02 2.026110517e-02 7.173247203e-02 -9.719343200e-01 1.961853392e-01
1.700000e+09 -9.671757271e-01 1.920791792e-01 1.961243907e-02 7.274535263e-02 2.056655170e-02 7.227548740e-02 -9.715445966e-01 1.974738816e-01
1.710000e+09 -9.667172174e-01 1.933225621e-01 1.990957019e-02 7.330022372e-02 2.087571184e-02 7.282077891e-02 -9.711507381e-01 1.987648696e-01
1.720000e+09 -9.662538423e-01 1.945680039e-01 2.021037632e-02 7.385756051e-02 2.118863176e-02 7.336836547e-02 -9.707527014e-01 2.000583250e-01
1.730000e+09 -9.657855495e-01 1.958155225e-01 2.051490521e-02 7.441738469e-02 2.150535850e-02 7.391826612e-02 -9.703504426e-01 2.013542702e-01
1.740000e+09 -9.653122856e-01 1.970651358e-01 2.082320560e-02 7.497971800e-02 2.182594006e-02 7.447049995e-02 -9.699439167e-01 2.026527273e-01
1.750000e+09 -9.648339962e-01 1.983168622e-01 2.113532721e-02 7.554458230e-02 2.215042536e-02 7.502508613e-02 -9.695330781e-01 2.039537192e-01
1.760000e+09 -9.643506260e-01 1.995707197e-01 2.145132077e-02 7.611199951e-02 2.247886428e-02 7.558204391e-02 -9.691178801e-01 2.052572687e-01
1.770000e+09 -9.638621184e-01 2.008267267e-01 2.177123806e-02 7.668199159e-02 2.281130769e-02 7.614139261e-02 -9.686982752e-01 2.065633988e-01
1.780000e+09 -9.633684158e-01 2.020849015e-01 2.209513188e-02 7.725458059e-02 2.314780748e-02 7.670315158e-02 -9.682742149e-01 2.078721329e-01
1.790000e+09 -9.628694595e-01 2.033452625e-01 2.242305614e-02 7.782978860e-02 2.348841656e-02 7.726734022e-02 -9.678456497e-01 2.091834946e-01
1.800000e+09 -9.623651894e-01 2.046078281e-01 2.275506583e-02 7.840763775e-02 2.383318890e-02 7.783397800e-02 -9.674125291e-01 2.104975074e-01
1.810000e+09 -9.618555446e-01 2.058726166e-01 2.309121705e-02 7.898815020e-02 2.418217953e-02 7.840308438e-02 -9.669748016e-01 2.118141954e-01
1.820000e+09 -9.613404627e-01 2.071396464e-01 2.343156707e-02 7.957134812e-02 2.453544459e-02 7.897467887e-02 -9.665324147e-01 2.131335824e-01
1.830000e+09 -9.608198802e-01 2.084089356e-01 2.377617429e-02 8.015725370e-02 2.489304133e-02 7.954878096e-02 -9.660853147e-01 2.144556926e-01
1.840000e+09 -9.602937322e-01 2.096805023e-01 2.412509834e-02 8.074588914e-02 2.525502817e-02 8.012541019e-02 -9.656334468e-01 2.157805505e-01
1.850000e+09 -9.597619528e-01 2.109543647e-01 2.447840001e-02 8.133727661e-02 2.562146466e-02 8.070458603e-02 -9.651767553e-01 2.171081803e-01
1.860000e+09 -9.592244746e-01 2.122305406e-01 2.483614137e-02 8.193143827e-02 2.599241157e-02 8.128632797e-02 -9.647151831e-01 2.184386067e-01
1.870000e+09 -9.586812288e-01 2.135090477e-01 2.519838571e-02 8.252839622e-02 2.636793086e-02 8.187065546e-02 -9.642486720e-01 2.197718541e-01
1.880000e+09 -9.581321456e-01 2.147899034e-01 2.556519762e-02 8.312817254e-02 2.674808576e-02 8.245758789e-02 -9.637771626e-01 2.211079474e-01
1.890000e+09 -9.575771536e-01 2.160731250e-01 2.593664299e-02 8.373078923e-02 2.713294075e-02 8.304714461e-02 -9.633005943e-01 2.224469112e-01
1.900000e+09 -9.570161798e-01 2.173587295e-01 2.631278903e-02 8.433626822e-02 2.752256157e-02 8.363934487e-02 -9.628189052e-01 2.237887702e-01
1.910000e+09 -9.564491503e-01 2.186467336e-01 2.669370432e-02 8.494463134e-02 2.791701533e-02 8.423420787e-02 -9.623320321e-01 2.251335493e-01
1.920000e+09 -9.558759893e-01 2.199371536e-01 2.707945880e-02 8.555590032e-02 2.831637043e-02 8.483175267e-02 -9.618399106e-01 2.264812732e-01
1.930000e+09 -9.552966197e-01 2.212300055e-01 2.747012380e-02 8.617009675e-02 2.872069665e-02 8.543199824e-02 -9.613424748e-01 2.278319666e-01
1.940000e+09 -9.547109631e-01 2.225253049e-01 2.786577209e-02 8.678724212e-02 2.913006517e-02 8.603496340e-02 -9.608396575e-01 2.291856542e-01
1.950000e+09 -9.541189392e-01 2.238230670e-01 2.826647790e-02 8.740735771e-02 2.954454858e-02 8.664066682e-02 -9.603313901e-01 2.305423606e-01
1.960000e+09 -9.535204666e-01 2.251233065e-01 2.867231691e-02 8.803046466e-02 2.996422089e-02 8.724912702e-02 -9.598176026e-01 2.319021104e-01
1.970000e+09 -9.529154621e-01 2.264260376e-01 2.908336631e-02 8.865658390e-02 3.038915761e-02 8.786036229e-02 -9.592982236e-01 2.332649278e-01
1.980000e+09 -9.523038408e-01 2.277312739e-01 2.949970481e-02 8.928573615e-02 3.081943573e-02 8.847439076e-02 -9.587731801e-01 2.346308372e-01
1.990000e+09 -9.516855164e-01 2.290390286e-01 2.992141267e-02 8.991794190e-02 3.125513376e-02 8.909123030e-02 -9.582423976e-01 2.359998625e-01
2.000000e+09 -9.510604010e-01 2.303493141e-01 3.034857173e-02 9.055322138e-02 3.169633176e-02 8.971089853e-02 -9.577058001e-01 2.373720278e-01
2.010000e+09 -9.504284050e-01 2.316621422e-01 3.078126542e-02 9.119159454e-02 3.214311136e-02 9.033341281e-02 -9.571633101e-01 2.387473566e-01
2.020000e+09 -9.497894369e-01 2.329775241e-01 3.121957882e-02 9.183308104e-02 3.259555580e-02 9.095879021e-02 -9.566148484e-01 2.401258722e-01
2.030000e+09 -9.491434038e-01 2.342954701e-01 3.166359863e-02 9.247770019e-02 3.305374995e-02 9.158704746e-02 -9.560603342e-01 2.415075979e-01
2.040000e+09 -9.484902110e-01 2.356159899e-01 3.211341323e-02 9.312547099e-02 3.351778032e-02 9.221820096e-02 -9.554996851e-01 2.428925564e-01
2.050000e+09 -9.478297620e-01 2.369390922e-01 3.256911274e-02 9.377641203e-02 3.398773514e-02 9.285226673e-02 -9.549328169e-01 2.442807701e-01
2.060000e+09 -9.471619585e-01 2.382647849e-01 3.303078897e-02 9.443054152e-02 3.446370432e-02 9.348926041e-02 -9.543596437e-01 2.456722610e-01
2.070000e+09 -9.464867005e-01 2.395930751e-01 3.349853549e-02 9.508787725e-02 3.494577953e-02 9.412919719e-02 -9.537800780e-01 2.470670509e-01
2.080000e+09 -9.458038861e-01 2.409239689e-01 3.397244768e-02 9.574843653e-02 3.543405419e-02 9.477209182e-02 -9.531940304e-01 2.484651609e-01
2.090000e+09 -9.451134117e-01 2.422574712e-01 3.445262270e-02 9.641223620e-02 3.592862355e-02 9.541795856e-02 -9.526014096e-01 2.498666116e-01
2.100000e+09 -9.444151716e-01 2.435935862e-01 3.493915955e-02 9.707929258e-02 3.642958465e-02 9.606681115e-02 -9.520021228e-01 2.512714234e-01
2.110000e+09 -9.437090585e-01 2.449323166e-01 3.543215910e-02 9.774962146e-02 3.693703640e-02 9.671866278e-02 -9.513960749e-01 2.526796157e-01
2.120000e+09 -9.429949630e-01 2.462736642e-01 3.593172410e-02 9.842323804e-02 3.745107959e-02 9.737352606e-02 -9.507831693e-01 2.540912076e-01
2.130000e+09 -9.422727737e-01 2.476176296e-01 3.643795921e-02 9.910015689e-02 3.797181694e-02 9.803141297e-02 -9.501633072e-01 2.555062175e-01
2.140000e+09 -9.415423776e-01 2.489642121e-01 3.695097104e-02 9.978039196e-02 3.849935307e-02 9.869233484e-02 -9.495363880e-01 2.569246630e-01
2.150000e+09 -9.408036593e-01 2.503134097e-01 3.747086816e-02 1.004639565e-01 3.903379460e-02 9.935630230e-02 -9.489023090e-01 2.583465611e-01
2.160000e+09 -9.400565018e-01 2.516652190e-01 3.799776111e-02 1.011508631e-01 3.957525013e-02 1.000233253e-01 -9.482609655e-01 2.597719279e-01
2.170000e+09 -9.393007858e-01 2.530196353e-01 3.853176250e-02 1.018411235e-01 4.012383029e-02 1.006934128e-01 -9.476122510e-01 2.612007789e-01
2.180000e+09 -9.385363901e-01 2.543766523e-01 3.907298693e-02 1.025347487e-01 4.067964776e-02 1.013665733e-01 -9.469560566e-01 2.626331285e-01
2.190000e+09 -9.377631914e-01 2.557362622e-01 3.962155110e-02 1.032317488e-01 4.124281729e-02 1.020428142e-01 -9.462922714e-01 2.640689903e-01
2.200000e+09 -9.369810644e-01 2.570984559e-01 4.017757381e-02 1.039321332e-01 4.181345576e-02 1.027221420e-01 -9.456207825e-01 2.655083768e-01
2.210000e+09 -9.361898816e-01 2.584632222e-01 4.074117595e-02 1.046359101e-01 4.239168217e-02 1.034045623e-01 -9.449414748e-01 2.669512997e-01
2.220000e+09 -9.353895135e-01 2.598305485e-01 4.131248060e-02 1.053430870e-01 4.297761767e-02 1.040900797e-01 -9.442542308e-01 2.683977695e-01
2.230000e+09 -9.345798286e-01 2.612004204e-01 4.189161297e-02 1.060536703e-01 4.357138562e-02 1.047786977e-01 -9.435589312e-01 2.698477955e-01
2.240000e+09 -9.337606929e-01 2.625728218e-01 4.247870050e-02 1.067676653e-01 4.417311159e-02 1.054704188e-01 -9.428554541e-01 2.713013861e-01
2.250000e+09 -9.329319705e-01 2.639477344e-01 4.307387284e-02 1.074850762e-01 4.478292340e-02 1.061652442e-01 -9.421436755e-01 2.727585481e-01
2.260000e+09 -9.320935233e-01 2.653251383e-01 4.367726188e-02 1.082059061e-01 4.540095111e-02 1.068631741e-01 -9.414234692e-01 2.742192873e-01
2.270000e+09 -9.312452110e-01 2.667050115e-01 4.428900181e-02 1.089301568e-01 4.602732710e-02 1.075642071e-01 -9.406947064e-01 2.756836079e-01
2.280000e+09 -9.303868910e-01 2.680873298e-01 4.490922907e-02 1.096578290e-01 4.666218607e-02 1.082683408e-01 -9.399572564e-01 2.771515129e-01
2.290000e+09 -9.295184187e-01 2.694720672e-01 4.553808247e-02 1.103889220e-01 4.730566504e-02 1.089755714e-01 -9.392109857e-01 2.786230038e-01
2.300000e+09 -9.286396472e-01 2.708591952e-01 4.617570313e-02 1.111234336e-01 4.795790343e-02 1.096858934e-01 -9.384557587e-01 2.800980804e-01
2.310000e+09 -9.277504272e-01 2.722486832e-01 4.682223455e-02 1.118613605e-01 4.861904302e-02 1.103992999e-01 -9.376914374e-01 2.815767409e-01
2.320000e+09 -9.268506072e-01 2.736404982e-01 4.747782263e-02 1.126026975e-01 4.928922803e-02 1.111157826e-01 -9.369178813e-01 2.830589821e-01
2.330000e+09 -9.259400337e-01 2.750346050e-01 4.814261565e-02 1.133474384e-01 4.996860510e-02 1.118353314e-01 -9.361349475e-01 2.845447987e-01
2.340000e+09 -9.250185506e-01 2.764309658e-01 4.881676437e-02 1.140955748e-01 5.065732333e-02 1.125579345e-01 -9.353424906e-01 2.860341840e-01
2.350000e+09 -9.240859997e-01 2.778295403e-01 4.950042197e-02 1.148470972e-01 5.135553430e-02 1.132835782e-01 -9.345403628e-01 2.875271289e-01
2.360000e+09 -9.231422205e-01 2.792302857e-01 5.019374413e-02 1.156019939e-01 5.206339209e-02 1.140122473e-01 -9.337284138e-01 2.890236228e-01
2.370000e+09 -9.221870502e-01 2.806331566e-01 5.089688902e-02 1.163602517e-01 5.278105329e-02 1.147439244e-01 -9.329064908e-01 2.905236530e-01
2.380000e+09 -9.212203236e-01 2.820381048e-01 5.161001735e-02 1.171218555e-01 5.350867704e-02 1.154785900e-01 -9.320744385e-01 2.920272044e-01
2.390000e+09 -9.202418734e-01 2.834450792e-01 5.233329235e-02 1.178867882e-01 5.424642501e-02 1.162162229e-01 -9.312320991e-01 2.935342600e-01
2.400000e+09 -9.192515298e-01 2.848540263e-01 5.306687982e-02 1.186550307e-01 5.499446146e-02 1.169567993e-01 -9.303793122e-01 2.950448006e-01
2.410000e+09 -9.182491209e-01 2.862648891e-01 5.381094813e-02 1.194265620e-01 5.575295322e-02 1.177002934e-01 -9.295159149e-01 2.965588045e-01
2.420000e+09 -9.172344722e-01 2.876776082e-01 5.456566828e-02 1.202013587e-01 5.652206971e-02 1.184466772e-01 -9.286417418e-01 2.980762476e-01
2.430000e+09 -9.162074071e-01 2.890921209e-01 5.533121386e-02 1.209793955e-01 5.730198299e-02 1.191959199e-01 -9.277566250e-01 2.995971034e-01
2.440000e+09 -9.151677467e-01 2.905083612e-01 5.610776111e-02 1.217606445e-01 5.809286770e-02 1.199479886e-01 -9.268603939e-01 3.011213429e-01
2.450000e+09 -9.141153096e-01 2.919262604e-01 5.689548893e-02 1.225450756e-01 5.889490114e-02 1.207028475e-01 -9.259528754e-01 3.026489344e-01
2.460000e+09 -9.130499124e-01 2.933457462e-01 5.769457888e-02 1.233326562e-01 5.970826324e-02 1.214604583e-01 -9.250338940e-01 3.041798433e-01
2.470000e+09 -9.119713691e-01 2.947667431e-01 5.850521522e-02 1.241233513e-01 6.053313658e-02 1.222207799e-01 -9.241032715e-01 3.057140324e-01
2.480000e+09 -9.108794915e-01 2.961891722e-01 5.932758492e-02 1.249171232e-01 6.136970639e-02 1.229837684e-01 -9.231608272e-01 3.072514616e-01
2.490000e+09 -9.097740891e-01 2.976129515e-01 6.016187768e-02 1.257139314e-01 6.221816056e-02 1.237493766e-01 -9.222063779e-01 3.087920877e-01
2.500000e+09 -9.086549692e-01 2.990379950e-01 6.100828592e-02 1.265137328e-01 6.307868965e-02 1.245175548e-01 -9.212397379e-01 3.103358646e-01
2.510000e+09 -9.075219366e-01 3.004642136e-01 6.186700484e-02 1.273164815e-01 6.395148686e-02 1.252882496e-01 -9.202607190e-01 3.118827430e-01
2.520000e+09 -9.063747939e-01 3.018915142e-01 6.273823239e-02 1.281221283e-01 6.483674808e-02 1.260614047e-01 -9.192691303e-01 3.134326704e-01
2.530000e+09 -9.052133417e-01 3.033198005e-01 6.362216935e-02 1.289306214e-01 6.573467184e-02 1.268369604e-01 -9.182647788e-01 3.149855909e-01
2.540000e+09 -9.040373778e-01 3.047489720e-01 6.451901926e-02 1.297419057e-01 6.664545936e-02 1.276148532e-01 -9.172474688e-01 3.165414452e-01
2.550000e+09 -9.028466982e-01 3.061789248e-01 6.542898852e-02 1.305559226e-01 6.756931448e-02 1.283950165e-01 -9.162170022e-01 3.181001708e-01
2.560000e+09 -9.016410964e-01 3.076095508e-01 6.635228633e-02 1.313726107e-01 6.850644371e-02 1.291773798e-01 -9.151731784e-01 3.196617014e-01
2.570000e+09 -9.004203637e-01 3.090407383e-01 6.728912478e-02 1.321919049e-01 6.945705621e-02 1.299618687e-01 -9.141157947e-01 3.212259672e-01
2.580000e+09 -8.991842892e-01 3.104723716e-01 6.823971882e-02 1.330137366e-01 7.042136374e-02 1.307484052e-01 -9.130446457e-01 3.227928945e-01
2.590000e+09 -8.979326598e-01 3.119043308e-01 6.920428627e-02 1.338380336e-01 7.139958072e-02 1.315369071e-01 -9.119595240e-01 3.243624060e-01
2.600000e+09 -8.966652600e-01 3.133364922e-01 7.018304787e-02 1.346647202e-01 7.239192416e-02 1.323272882e-01 -9.108602196e-01 3.259344205e-01
2.610000e+09 -8.953818723e-01 3.147687278e-01 7.117622730e-02 1.354937166e-01 7.339861367e-02 1.331194580e-01 -9.097465206e-01 3.275088528e-01
2.620000e+09 -8.940822769e-01 3.162009054e-01 7.218405116e-02 1.363249394e-01 7.441987146e-02 1.339133217e-01 -9.086182124e-01 3.290856138e-01
2.630000e+09 -8.927662517e-01 3.176328888e-01 7.320674901e-02 1.371583009e-01 7.545592228e-02 1.347087802e-01 -9.074750786e-01 3.306646102e-01
2.640000e+09 -8.914335725e-01 3.190645373e-01 7.424455340e-02 1.379937096e-01 7.650699345e-02 1.355057296e-01 -9.063169007e-01 3.322457445e-01
2.650000e+09 -8.900840129e-01 3.204957061e-01 7.529769989e-02 1.388310696e-01 7.757331483e-02 1.363040615e-01 -9.051434577e-01 3.338289152e-01
2.660000e+09 -8.887173442e-01 3.219262459e-01 7.636642706e-02 1.396702807e-01 7.865511876e-02 1.371036629e-01 -9.039545269e-01 3.354140161e-01
2.670000e+09 -8.873333358e-01 3.233560029e-01 7.745097654e-02 1.405112383e-01 7.975264012e-02 1.379044155e-01 -9.027498835e-01 3.370009371e-01
2.680000e+09 -8.859317545e-01 3.247848191e-01 7.855159304e-02 1.413538333e-01 8.086611622e-02 1.387061964e-01 -9.015293006e-01 3.385895634e-01
2.690000e+09 -8.845123652e-01 3.262125319e-01 7.966852439e-02 1.421979517e-01 8.199578685e-02 1.395088775e-01 -9.002925496e-01 3.401797758e-01
2.700000e+09 -8.830749305e-01 3.276389739e-01 8.080202152e-02 1.430434751e-01 8.314189423e-02 1.403123253e-01 -8.990393999e-01 3.417714506e-01
2.710000e+09 -8.816192107e-01 3.290639733e-01 8.195233858e-02 1.438902801e-01 8.430468297e-02 1.411164012e-01 -8.977696191e-01 3.433644594e-01
2.720000e+09 -8.801449641e-01 3.304873538e-01 8.311973287e-02 1.447382380e-01 8.548440009e-02 1.419209611e-01 -8.964829730e-01 3.449586692e-01
2.730000e+09 -8.786519464e-01 3.319089341e-01 8.430446497e-02 1.455872153e-01 8.668129496e-02 1.427258555e-01 -8.951792257e-01 3.465539424e-01
2.740000e+09 -8.771399114e-01 3.333285283e-01 8.550679872e-02 1.464370731e-01 8.789561931e-02 1.435309289e-01 -8.938581395e-01 3.481501367e-01
2.750000e+09 -8.756086105e-01 3.347459456e-01 8.672700129e-02 1.472876673e-01 8.912762720e-02 1.443360204e-01 -8.925194754e-01 3.497471050e-01
2.760000e+09 -8.740577927e-01 3.361609903e-01 8.796534323e-02 1.481388479e-01 9.037757499e-02 1.451409631e-01 -8.911629923e-01 3.513446952e-01
2.770000e+09 -8.724872048e-01 3.375734620e-01 8.922209850e-02 1.489904596e-01 9.164572134e-02 1.459455841e-01 -8.897884480e-01 3.529427507e-01
2.780000e+09 -8.708965911e-01 3.389831550e-01 9.049754453e-02 1.498423412e-01 9.293232717e-02 1.467497046e-01 -8.883955985e-01 3.545411099e-01
2.790000e+09 -8.692856937e-01 3.403898587e-01 9.179196231e-02 1.506943254e-01 9.423765569e-02 1.475531396e-01 -8.869841985e-01 3.561396064e-01
2.800000e+09 -8.676542521e-01 3.417933572e-01 9.310563641e-02 1.515462392e-01 9.556197237e-02 1.483556975e-01 -8.855540011e-01 3.577380687e-01
2.810000e+09 -8.660020032e-01 3.431934295e-01 9.443885505e-02 1.523979029e-01 9.690554490e-02 1.491571809e-01 -8.841047580e-01 3.593363206e-01
2.820000e+09 -8.643286816e-01 3.445898493e-01 9.579191021e-02 1.532491308e-01 9.826864325e-02 1.499573854e-01 -8.826362197e-01 3.609341809e-01
2.830000e+09 -8.626340190e-01 3.459823848e-01 9.716509767e-02 1.540997303e-01 9.965153963e-02 1.507561004e-01 -8.811481350e-01 3.625314635e-01
2.840000e+09 -8.609177447e-01 3.473707986e-01 9.855871710e-02 1.549495024e-01 1.010545085e-01 1.515531085e-01 -8.796402515e-01 3.641279774e-01
2.850000e+09 -8.591795850e-01 3.487548478e-01 9.997307216e-02 1.557982409e-01 1.024778266e-01 1.523481855e-01 -8.781123154e-01 3.657235265e-01
2.860000e+09 -8.574192635e-01 3.501342835e-01 1.014084706e-01 1.566457326e-01 1.039217729e-01 1.531411004e-01 -8.765640716e-01 3.673179100e-01
2.870000e+09 -8.556365007e-01 3.515088511e-01 1.028652242e-01 1.574917571e-01 1.053866287e-01 1.539316153e-01 -8.749952633e-01 3.689109218e-01
2.880000e+09 -8.538310143e-01 3.528782898e-01 1.043436493e-01 1.583360865e-01 1.068726778e-01 1.547194850e-01 -8.734056325e-01 3.705023513e-01
2.890000e+09 -8.520025187e-01 3.542423325e-01 1.058440663e-01 1.591784849e-01 1.083802061e-01 1.555044575e-01 -8.717949197e-01 3.720919826e-01
2.900000e+09 -8.501507251e-01 3.556007056e-01 1.073668003e-01 1.600187088e-01 1.099095021e-01 1.562862731e-01 -8.701628639e-01 3.736795950e-01
2.910000e+09 -8.482753414e-01 3.569531290e-01 1.089121809e-01 1.608565063e-01 1.114608567e-01 1.570646652e-01 -8.685092023e-01 3.752649629e-01
2.920000e+09 -8.463760720e-01 3.582993154e-01 1.104805426e-01 1.616916172e-01 1.130345635e-01 1.578393594e-01 -8.668336707e-01 3.768478556e-01
2.930000e+09 -8.444526177e-01 3.596389705e-01 1.120722245e-01 1.625237724e-01 1.146309184e-01 1.586100738e-01 -8.651360029e-01 3.784280375e-01
2.940000e+09 -8.425046755e-01 3.609717925e-01 1.136875710e-01 1.633526940e-01 1.162502203e-01 1.593765188e-01 -8.634159309e-01 3.800052682e-01
2.950000e+09 -8.405319386e-01 3.622974716e-01 1.153269313e-01 1.641780946e-01 1.178927708e-01 1.601383969e-01 -8.616731848e-01 3.815793022e-01
2.960000e+09 -8.385340961e-01 3.636156901e-01 1.169906601e-01 1.649996774e-01 1.195588742e-01 1.608954029e-01 -8.599074922e-01 3.831498887e-01
2.970000e+09 -8.365108332e-01 3.649261216e-01 1.186791175e-01 1.658171354e-01 1.212488381e-01 1.616472231e-01 -8.581185787e-01 3.847167723e-01
2.980000e+09 -8.344618305e-01 3.662284307e-01 1.203926691e-01 1.666301514e-01 1.229629732e-01 1.623935358e-01 -8.563061673e-01 3.862796923e-01
2.990000e+09 -8.323867641e-01 3.675222727e-01 1.221316863e-01 1.674383974e-01 1.247015932e-01 1.631340108e-01 -8.544699780e-01 3.878383827e-01
3.000000e+09 -8.302853058e-01 3.688072928e-01 1.238965462e-01 1.682415343e-01 1.264650157e-01 1.638683094e-01 -8.526097283e-01 3.893925724e-01
