! rfsim (KiCad + openEMS)
# HZ S RI R 50
5.000000e+08 -6.476441353e-01 -4.644948513e-02 -5.996656845e-02 -4.791425467e-03 -7.415073145e-01 1.246194961e-01 -1.751991762e-01 1.480888272e-02
5.100000e+08 -6.474024762e-01 -4.734901561e-02 -5.994167281e-02 -4.884219000e-03 -7.417805166e-01 1.271041932e-01 -1.752314446e-01 1.510415270e-02
5.200000e+08 -6.471563123e-01 -4.824683063e-02 -5.991631308e-02 -4.976835801e-03 -7.420591272e-01 1.295884327e-01 -1.752643519e-01 1.539936868e-02
5.300000e+08 -6.469056596e-01 -4.914289989e-02 -5.989049091e-02 -5.069272749e-03 -7.423431462e-01 1.320722055e-01 -1.752978980e-01 1.569452959e-02
5.400000e+08 -6.466505343e-01 -5.003719326e-02 -5.986420799e-02 -5.161526740e-03 -7.426325735e-01 1.345555025e-01 -1.753320829e-01 1.598963436e-02
5.500000e+08 -6.463909530e-01 -5.092968082e-02 -5.983746600e-02 -5.253594691e-03 -7.429274090e-01 1.370383148e-01 -1.753669066e-01 1.628468194e-02
5.600000e+08 -6.461269323e-01 -5.182033282e-02 -5.981026668e-02 -5.345473536e-03 -7.432276526e-01 1.395206332e-01 -1.754023690e-01 1.657967124e-02
5.700000e+08 -6.458584895e-01 -5.270911972e-02 -5.978261179e-02 -5.437160233e-03 -7.435333043e-01 1.420024486e-01 -1.754384702e-01 1.687460120e-02
5.800000e+08 -6.455856417e-01 -5.359601215e-02 -5.975450311e-02 -5.528651758e-03 -7.438443640e-01 1.444837521e-01 -1.754752101e-01 1.716947076e-02
5.900000e+08 -6.453084066e-01 -5.448098097e-02 -5.972594244e-02 -5.619945106e-03 -7.441608314e-01 1.469645346e-01 -1.755125888e-01 1.746427884e-02
6.000000e+08 -6.450268018e-01 -5.536399723e-02 -5.969693161e-02 -5.711037295e-03 -7.444827066e-01 1.494447870e-01 -1.755506062e-01 1.775902437e-02
6.100000e+08 -6.447408455e-01 -5.624503218e-02 -5.966747249e-02 -5.801925364e-03 -7.448099894e-01 1.519245002e-01 -1.755892623e-01 1.805370629e-02
6.200000e+08 -6.444505559e-01 -5.712405728e-02 -5.963756696e-02 -5.892606372e-03 -7.451426798e-01 1.544036651e-01 -1.756285572e-01 1.834832351e-02
6.300000e+08 -6.441559515e-01 -5.800104420e-02 -5.960721692e-02 -5.983077401e-03 -7.454807775e-01 1.568822728e-01 -1.756684907e-01 1.864287498e-02
6.400000e+08 -6.438570510e-01 -5.887596482e-02 -5.957642431e-02 -6.073335554e-03 -7.458242825e-01 1.593603140e-01 -1.757090628e-01 1.893735961e-02
6.500000e+08 -6.435538736e-01 -5.974879123e-02 -5.954519108e-02 -6.163377955e-03 -7.461731948e-01 1.618377797e-01 -1.757502737e-01 1.923177634e-02
6.600000e+08 -6.432464383e-01 -6.061949575e-02 -5.951351921e-02 -6.253201752e-03 -7.465275140e-01 1.643146608e-01 -1.757921232e-01 1.952612409e-02
6.700000e+08 -6.429347646e-01 -6.148805090e-02 -5.948141071e-02 -6.342804115e-03 -7.468872403e-01 1.667909482e-01 -1.758346113e-01 1.982040178e-02
6.800000e+08 -6.426188723e-01 -6.235442944e-02 -5.944886760e-02 -6.432182237e-03 -7.472523733e-01 1.692666327e-01 -1.758777380e-01 2.011460835e-02
6.900000e+08 -6.422987810e-01 -6.321860433e-02 -5.941589193e-02 -6.521333333e-03 -7.476229131e-01 1.717417054e-01 -1.759215034e-01 2.040874272e-02
7.000000e+08 -6.419745111e-01 -6.408054877e-02 -5.938248577e-02 -6.610254642e-03 -7.479988594e-01 1.742161570e-01 -1.759659073e-01 2.070280381e-02
7.100000e+08 -6.416460828e-01 -6.494023620e-02 -5.934865122e-02 -6.698943426e-03 -7.483802121e-01 1.766899785e-01 -1.760109498e-01 2.099679055e-02
7.200000e+08 -6.413135167e-01 -6.579764025e-02 -5.931439039e-02 -6.787396971e-03 -7.487669712e-01 1.791631607e-01 -1.760566309e-01 2.129070186e-02
7.300000e+08 -6.409768334e-01 -6.665273483e-02 -5.927970542e-02 -6.875612586e-03 -7.491591364e-01 1.816356945e-01 -1.761029505e-01 2.158453666e-02
7.400000e+08 -6.406360540e-01 -6.750549404e-02 -5.924459847e-02 -6.963587605e-03 -7.495567077e-01 1.841075708e-01 -1.761499087e-01 2.187829388e-02
7.500000e+08 -6.402911996e-01 -6.835589224e-02 -5.920907172e-02 -7.051319386e-03 -7.499596849e-01 1.865787803e-01 -1.761975053e-01 2.217197243e-02
7.600000e+08 -6.399422915e-01 -6.920390402e-02 -5.917312736e-02 -7.138805311e-03 -7.503680679e-01 1.890493141e-01 -1.762457405e-01 2.246557124e-02
7.700000e+08 -6.395893514e-01 -7.004950421e-02 -5.913676762e-02 -7.226042787e-03 -7.507818564e-01 1.915191628e-01 -1.762946141e-01 2.275908923e-02
7.800000e+08 -6.392324009e-01 -7.089266788e-02 -5.909999474e-02 -7.313029245e-03 -7.512010505e-01 1.939883174e-01 -1.763441262e-01 2.305252531e-02
7.900000e+08 -6.388714620e-01 -7.173337034e-02 -5.906281098e-02 -7.399762142e-03 -7.516256498e-01 1.964567687e-01 -1.763942767e-01 2.334587841e-02
8.000000e+08 -6.385065568e-01 -7.257158714e-02 -5.902521862e-02 -7.486238959e-03 -7.520556543e-01 1.989245075e-01 -1.764450657e-01 2.363914744e-02
8.100000e+08 -6.381377077e-01 -7.340729408e-02 -5.898721996e-02 -7.572457204e-03 -7.524910639e-01 2.013915247e-01 -1.764964931e-01 2.393233132e-02
8.200000e+08 -6.377649371e-01 -7.424046722e-02 -5.894881731e-02 -7.658414408e-03 -7.529318782e-01 2.038578110e-01 -1.765485589e-01 2.422542897e-02
8.300000e+08 -6.373882677e-01 -7.507108284e-02 -5.891001300e-02 -7.744108130e-03 -7.533780973e-01 2.063233574e-01 -1.766012630e-01 2.451843931e-02
8.400000e+08 -6.370077223e-01 -7.589911750e-02 -5.887080941e-02 -7.829535953e-03 -7.538297209e-01 2.087881545e-01 -1.766546055e-01 2.481136124e-02
8.500000e+08 -6.366233240e-01 -7.672454799e-02 -5.883120888e-02 -7.914695487e-03 -7.542867489e-01 2.112521932e-01 -1.767085864e-01 2.510419369e-02
8.600000e+08 -6.362350960e-01 -7.754735135e-02 -5.879121382e-02 -7.999584367e-03 -7.547491810e-01 2.137154643e-01 -1.767632055e-01 2.539693556e-02
8.700000e+08 -6.358430615e-01 -7.836750490e-02 -5.875082663e-02 -8.084200255e-03 -7.552170172e-01 2.161779586e-01 -1.768184630e-01 2.568958577e-02
8.800000e+08 -6.354472441e-01 -7.918498619e-02 -5.871004973e-02 -8.168540839e-03 -7.556902572e-01 2.186396668e-01 -1.768743587e-01 2.598214324e-02
8.900000e+08 -6.350476675e-01 -7.999977304e-02 -5.866888556e-02 -8.252603834e-03 -7.561689009e-01 2.211005798e-01 -1.769308927e-01 2.627460687e-02
9.000000e+08 -6.346443555e-01 -8.081184351e-02 -5.862733657e-02 -8.336386981e-03 -7.566529480e-01 2.235606882e-01 -1.769880649e-01 2.656697557e-02
9.100000e+08 -6.342373321e-01 -8.162117595e-02 -5.858540524e-02 -8.419888047e-03 -7.571423985e-01 2.260199830e-01 -1.770458753e-01 2.685924826e-02
9.200000e+08 -6.338266214e-01 -8.242774894e-02 -5.854309404e-02 -8.503104826e-03 -7.576372521e-01 2.284784548e-01 -1.771043239e-01 2.715142385e-02
9.300000e+08 -6.334122476e-01 -8.323154134e-02 -5.850040549e-02 -8.586035141e-03 -7.581375086e-01 2.309360943e-01 -1.771634107e-01 2.744350124e-02
9.400000e+08 -6.329942352e-01 -8.403253226e-02 -5.845734208e-02 -8.668676839e-03 -7.586431678e-01 2.333928924e-01 -1.772231356e-01 2.773547934e-02
9.500000e+08 -6.325726087e-01 -8.483070107e-02 -5.841390637e-02 -8.751027796e-03 -7.591542296e-01 2.358488397e-01 -1.772834987e-01 2.802735706e-02
9.600000e+08 -6.321473929e-01 -8.562602743e-02 -5.837010088e-02 -8.833085914e-03 -7.596706937e-01 2.383039270e-01 -1.773444998e-01 2.831913330e-02
9.700000e+08 -6.317186125e-01 -8.641849122e-02 -5.832592817e-02 -8.914849124e-03 -7.601925599e-01 2.407581450e-01 -1.774061390e-01 2.861080697e-02
9.800000e+08 -6.312862924e-01 -8.720807264e-02 -5.828139081e-02 -8.996315382e-03 -7.607198281e-01 2.432114844e-01 -1.774684163e-01 2.890237697e-02
9.900000e+08 -6.308504578e-01 -8.799475211e-02 -5.823649140e-02 -9.077482672e-03 -7.612524980e-01 2.456639360e-01 -1.775313316e-01 2.919384221e-02
1.000000e+09 -6.304111339e-01 -8.877851033e-02 -5.819123251e-02 -9.158349008e-03 -7.617905693e-01 2.481154904e-01 -1.775948849e-01 2.948520159e-02
1.010000e+09 -6.299683459e-01 -8.955932828e-02 -5.814561677e-02 -9.238912428e-03 -7.623340420e-01 2.505661384e-01 -1.776590762e-01 2.977645402e-02
1.020000e+09 -6.295221193e-01 -9.033718719e-02 -5.809964678e-02 -9.319171001e-03 -7.628829157e-01 2.530158705e-01 -1.777239055e-01 3.006759838e-02
1.030000e+09 -6.290724796e-01 -9.111206859e-02 -5.805332518e-02 -9.399122819e-03 -7.634371902e-01 2.554646776e-01 -1.777893726e-01 3.035863359e-02
1.040000e+09 -6.286194524e-01 -9.188395423e-02 -5.800665462e-02 -9.478766007e-03 -7.639968653e-01 2.579125502e-01 -1.778554777e-01 3.064955855e-02
1.050000e+09 -6.281630636e-01 -9.265282617e-02 -5.795963774e-02 -9.558098715e-03 -7.645619409e-01 2.603594790e-01 -1.779222206e-01 3.094037214e-02
1.060000e+09 -6.277033390e-01 -9.341866672e-02 -5.791227721e-02 -9.637119120e-03 -7.651324165e-01 2.628054548e-01 -1.779896014e-01 3.123107327e-02
1.070000e+09 -6.272403045e-01 -9.418145848e-02 -5.786457571e-02 -9.715825430e-03 -7.657082921e-01 2.652504680e-01 -1.780576200e-01 3.152166084e-02
1.080000e+09 -6.267739861e-01 -9.494118429e-02 -5.781653591e-02 -9.794215877e-03 -7.662895674e-01 2.676945095e-01 -1.781262764e-01 3.181213374e-02
1.090000e+09 -6.263044101e-01 -9.569782729e-02 -5.776816052e-02 -9.872288724e-03 -7.668762420e-01 2.701375698e-01 -1.781955706e-01 3.210249086e-02
1.100000e+09 -6.258316027e-01 -9.645137088e-02 -5.771945222e-02 -9.950042260e-03 -7.674683158e-01 2.725796395e-01 -1.782655025e-01 3.239273111e-02
1.110000e+09 -6.253555901e-01 -9.720179872e-02 -5.767041374e-02 -1.002747480e-02 -7.680657886e-01 2.750207093e-01 -1.783360720e-01 3.268285336e-02
1.120000e+09 -6.248763987e-01 -9.794909476e-02 -5.762104779e-02 -1.010458470e-02 -7.686686600e-01 2.774607697e-01 -1.784072793e-01 3.297285652e-02
1.130000e+09 -6.243940552e-01 -9.869324322e-02 -5.757135711e-02 -1.018137032e-02 -7.692769298e-01 2.798998115e-01 -1.784791242e-01 3.326273948e-02
1.140000e+09 -6.239085859e-01 -9.943422858e-02 -5.752134442e-02 -1.025783007e-02 -7.698905977e-01 2.823378251e-01 -1.785516067e-01 3.355250113e-02
1.150000e+09 -6.234200175e-01 -1.001720356e-01 -5.747101247e-02 -1.033396238e-02 -7.705096635e-01 2.847748011e-01 -1.786247268e-01 3.384214034e-02
1.160000e+09 -6.229283767e-01 -1.009066493e-01 -5.742036401e-02 -1.040976571e-02 -7.711341268e-01 2.872107302e-01 -1.786984845e-01 3.413165602e-02
1.170000e+09 -6.224336904e-01 -1.016380550e-01 -5.736940180e-02 -1.048523854e-02 -7.717639875e-01 2.896456029e-01 -1.787728796e-01 3.442104706e-02
1.180000e+09 -6.219359852e-01 -1.023662383e-01 -5.731812860e-02 -1.056037938e-02 -7.723992452e-01 2.920794097e-01 -1.788479123e-01 3.471031232e-02
1.190000e+09 -6.214352881e-01 -1.030911849e-01 -5.726654718e-02 -1.063518678e-02 -7.730398997e-01 2.945121413e-01 -1.789235824e-01 3.499945071e-02
1.200000e+09 -6.209316261e-01 -1.038128811e-01 -5.721466032e-02 -1.070965930e-02 -7.736859506e-01 2.969437881e-01 -1.789998899e-01 3.528846111e-02
1.210000e+09 -6.204250261e-01 -1.045313132e-01 -5.716247080e-02 -1.078379555e-02 -7.743373976e-01 2.993743407e-01 -1.790768348e-01 3.557734239e-02
1.220000e+09 -6.199155151e-01 -1.052464678e-01 -5.710998140e-02 -1.085759415e-02 -7.749942406e-01 3.018037897e-01 -1.791544171e-01 3.586609345e-02
1.230000e+09 -6.194031203e-01 -1.059583320e-01 -5.705719491e-02 -1.093105375e-02 -7.756564790e-01 3.042321254e-01 -1.792326366e-01 3.615471316e-02
1.240000e+09 -6.188878689e-01 -1.066668928e-01 -5.700411413e-02 -1.100417303e-02 -7.763241128e-01 3.066593386e-01 -1.793114935e-01 3.644320040e-02
1.250000e+09 -6.183697879e-01 -1.073721378e-01 -5.695074187e-02 -1.107695070e-02 -7.769971414e-01 3.090854196e-01 -1.793909876e-01 3.673155405e-02
1.260000e+09 -6.178489046e-01 -1.080740546e-01 -5.689708092e-02 -1.114938551e-02 -7.776755647e-01 3.115103589e-01 -1.794711188e-01 3.701977299e-02
1.270000e+09 -6.173252462e-01 -1.087726314e-01 -5.684313409e-02 -1.122147620e-02 -7.783593823e-01 3.139341470e-01 -1.795518873e-01 3.730785609e-02
1.280000e+09 -6.167988401e-01 -1.094678563e-01 -5.678890420e-02 -1.129322158e-02 -7.790485939e-01 3.163567745e-01 -1.796332929e-01 3.759580224e-02
1.290000e+09 -6.162697135e-01 -1.101597180e-01 -5.673439405e-02 -1.136462047e-02 -7.797431991e-01 3.187782317e-01 -1.797153356e-01 3.788361031e-02
1.300000e+09 -6.157378938e-01 -1.108482051e-01 -5.667960647e-02 -1.143567170e-02 -7.804431977e-01 3.211985091e-01 -1.797980153e-01 3.817127916e-02
1.310000e+09 -6.152034083e-01 -1.115333069e-01 -5.662454426e-02 -1.150637416e-02 -7.811485892e-01 3.236175972e-01 -1.798813320e-01 3.845880768e-02
1.320000e+09 -6.146662845e-01 -1.122150125e-01 -5.656921026e-02 -1.157672675e-02 -7.818593733e-01 3.260354863e-01 -1.799652857e-01 3.874619473e-02
1.330000e+09 -6.141265496e-01 -1.128933117e-01 -5.651360729e-02 -1.164672840e-02 -7.825755497e-01 3.284521670e-01 -1.800498764e-01 3.903343918e-02
1.340000e+09 -6.135842313e-01 -1.135681943e-01 -5.645773816e-02 -1.171637805e-02 -7.832971180e-01 3.308676297e-01 -1.801351039e-01 3.932053991e-02
1.350000e+09 -6.130393567e-01 -1.142396505e-01 -5.640160571e-02 -1.178567470e-02 -7.840240779e-01 3.332818647e-01 -1.802209683e-01 3.960749579e-02
1.360000e+09 -6.124919535e-01 -1.149076706e-01 -5.634521277e-02 -1.185461736e-02 -7.847564290e-01 3.356948624e-01 -1.803074695e-01 3.989430567e-02
1.370000e+09 -6.119420490e-01 -1.155722452e-01 -5.628856214e-02 -1.192320507e-02 -7.854941709e-01 3.381066133e-01 -1.803946074e-01 4.018096842e-02
1.380000e+09 -6.113896706e-01 -1.162333654e-01 -5.623165668e-02 -1.199143688e-02 -7.862373033e-01 3.405171077e-01 -1.804823821e-01 4.046748291e-02
1.390000e+09 -6.108348458e-01 -1.168910223e-01 -5.617449919e-02 -1.205931189e-02 -7.869858258e-01 3.429263360e-01 -1.805707935e-01 4.075384801e-02
1.400000e+09 -6.102776021e-01 -1.175452072e-01 -5.611709252e-02 -1.212682922e-02 -7.877397379e-01 3.453342885e-01 -1.806598414e-01 4.104006257e-02
1.410000e+09 -6.097179669e-01 -1.181959121e-01 -5.605943948e-02 -1.219398801e-02 -7.884990394e-01 3.477409557e-01 -1.807495260e-01 4.132612546e-02
1.420000e+09 -6.091559676e-01 -1.188431286e-01 -5.600154289e-02 -1.226078743e-02 -7.892637298e-01 3.501463277e-01 -1.808398471e-01 4.161203553e-02
1.430000e+09 -6.085916315e-01 -1.194868492e-01 -5.594340559e-02 -1.232722669e-02 -7.900338086e-01 3.525503951e-01 -1.809308047e-01 4.189779165e-02
1.440000e+09 -6.080249862e-01 -1.201270663e-01 -5.588503040e-02 -1.239330500e-02 -7.908092756e-01 3.549531480e-01 -1.810223987e-01 4.218339267e-02
1.450000e+09 -6.074560590e-01 -1.207637725e-01 -5.582642014e-02 -1.245902162e-02 -7.915901303e-01 3.573545768e-01 -1.811146292e-01 4.246883744e-02
1.460000e+09 -6.068848772e-01 -1.213969608e-01 -5.576757762e-02 -1.252437581e-02 -7.923763722e-01 3.597546717e-01 -1.812074960e-01 4.275412483e-02
1.470000e+09 -6.063114682e-01 -1.220266245e-01 -5.570850566e-02 -1.258936689e-02 -7.931680010e-01 3.621534232e-01 -1.813009991e-01 4.303925369e-02
1.480000e+09 -6.057358593e-01 -1.226527571e-01 -5.564920708e-02 -1.265399418e-02 -7.939650162e-01 3.645508214e-01 -1.813951384e-01 4.332422287e-02
1.490000e+09 -6.051580779e-01 -1.232753523e-01 -5.558968470e-02 -1.271825704e-02 -7.947674173e-01 3.669468567e-01 -1.814899139e-01 4.360903122e-02
1.500000e+09 -6.045781510e-01 -1.238944040e-01 -5.552994130e-02 -1.278215484e-02 -7.955752041e-01 3.693415192e-01 -1.815853256e-01 4.389367760e-02
1.510000e+09 -6.039961061e-01 -1.245099065e-01 -5.546997972e-02 -1.284568698e-02 -7.963883759e-01 3.717347993e-01 -1.816813734e-01 4.417816084e-02
1.520000e+09 -6.034119703e-01 -1.251218542e-01 -5.540980273e-02 -1.290885291e-02 -7.972069324e-01 3.741266871e-01 -1.817780572e-01 4.446247980e-02
1.530000e+09 -6.028257707e-01 -1.257302419e-01 -5.534941315e-02 -1.297165207e-02 -7.980308730e-01 3.765171729e-01 -1.818753770e-01 4.474663333e-02
1.540000e+09 -6.022375345e-01 -1.263350644e-01 -5.528881376e-02 -1.303408394e-02 -7.988601974e-01 3.789062469e-01 -1.819733328e-01 4.503062027e-02
1.550000e+09 -6.016472887e-01 -1.269363171e-01 -5.522800736e-02 -1.309614804e-02 -7.996949050e-01 3.812938993e-01 -1.820719244e-01 4.531443946e-02
1.560000e+09 -6.010550604e-01 -1.275339953e-01 -5.516699674e-02 -1.315784388e-02 -8.005349955e-01 3.836801203e-01 -1.821711519e-01 4.559808974e-02
1.570000e+09 -6.004608765e-01 -1.281280948e-01 -5.510578466e-02 -1.321917102e-02 -8.013804682e-01 3.860649000e-01 -1.822710151e-01 4.588156997e-02
1.580000e+09 -5.998647641e-01 -1.287186113e-01 -5.504437391e-02 -1.328012905e-02 -8.022313227e-01 3.884482288e-01 -1.823715140e-01 4.616487897e-02
1.590000e+09 -5.992667499e-01 -1.293055412e-01 -5.498276725e-02 -1.334071757e-02 -8.030875585e-01 3.908300966e-01 -1.824726486e-01 4.644801559e-02
1.600000e+09 -5.986668609e-01 -1.298888807e-01 -5.492096746e-02 -1.340093620e-02 -8.039491752e-01 3.932104937e-01 -1.825744188e-01 4.673097866e-02
1.610000e+09 -5.980651237e-01 -1.304686265e-01 -5.485897729e-02 -1.346078460e-02 -8.048161721e-01 3.955894102e-01 -1.826768245e-01 4.701376702e-02
1.620000e+09 -5.974615652e-01 -1.310447755e-01 -5.479679949e-02 -1.352026243e-02 -8.056885488e-01 3.979668362e-01 -1.827798657e-01 4.729637951e-02
1.630000e+09 -5.968562120e-01 -1.316173246e-01 -5.473443681e-02 -1.357936941e-02 -8.065663048e-01 4.003427618e-01 -1.828835423e-01 4.757881495e-02
1.640000e+09 -5.962490907e-01 -1.321862714e-01 -5.467189199e-02 -1.363810525e-02 -8.074494396e-01 4.027171771e-01 -1.829878543e-01 4.786107218e-02
1.650000e+09 -5.956402278e-01 -1.327516131e-01 -5.460916777e-02 -1.369646970e-02 -8.083379525e-01 4.050900723e-01 -1.830928016e-01 4.814315004e-02
1.660000e+09 -5.950296497e-01 -1.333133477e-01 -5.454626686e-02 -1.375446254e-02 -8.092318431e-01 4.074614374e-01 -1.831983840e-01 4.842504734e-02
1.670000e+09 -5.944173830e-01 -1.338714732e-01 -5.448319200e-02 -1.381208354e-02 -8.101311108e-01 4.098312625e-01 -1.833046017e-01 4.870676292e-02
1.680000e+09 -5.938034539e-01 -1.344259876e-01 -5.441994590e-02 -1.386933253e-02 -8.110357551e-01 4.121995375e-01 -1.834114545e-01 4.898829560e-02
1.690000e+09 -5.931878888e-01 -1.349768895e-01 -5.435653125e-02 -1.392620935e-02 -8.119457754e-01 4.145662527e-01 -1.835189422e-01 4.926964421e-02
1.700000e+09 -5.925707136e-01 -1.355241776e-01 -5.429295076e-02 -1.398271386e-02 -8.128611711e-01 4.169313979e-01 -1.836270650e-01 4.955080757e-02
1.710000e+09 -5.919519547e-01 -1.360678506e-01 -5.422920712e-02 -1.403884593e-02 -8.137819417e-01 4.192949633e-01 -1.837358226e-01 4.983178451e-02
1.720000e+09 -5.913316380e-01 -1.366079077e-01 -5.416530301e-02 -1.409460548e-02 -8.147080865e-01 4.216569388e-01 -1.838452151e-01 5.011257384e-02
1.730000e+09 -5.907097895e-01 -1.371443481e-01 -5.410124111e-02 -1.414999244e-02 -8.156396050e-01 4.240173145e-01 -1.839552424e-01 5.039317439e-02
1.740000e+09 -5.900864350e-01 -1.376771714e-01 -5.403702407e-02 -1.420500675e-02 -8.165764966e-01 4.263760803e-01 -1.840659043e-01 5.067358497e-02
1.750000e+09 -5.894616004e-01 -1.382063773e-01 -5.397265456e-02 -1.425964838e-02 -8.175187607e-01 4.287332261e-01 -1.841772009e-01 5.095380440e-02
1.760000e+09 -5.888353113e-01 -1.387319657e-01 -5.390813522e-02 -1.431391733e-02 -8.184663966e-01 4.310887420e-01 -1.842891320e-01 5.123383150e-02
1.770000e+09 -5.882075933e-01 -1.392539368e-01 -5.384346869e-02 -1.436781362e-02 -8.194194037e-01 4.334426179e-01 -1.844016976e-01 5.151366507e-02
1.780000e+09 -5.875784721e-01 -1.397722909e-01 -5.377865761e-02 -1.442133727e-02 -8.203777815e-01 4.357948438e-01 -1.845148976e-01 5.179330393e-02
1.790000e+09 -5.869479729e-01 -1.402870285e-01 -5.371370460e-02 -1.447448834e-02 -8.213415293e-01 4.381454095e-01 -1.846287320e-01 5.207274690e-02
1.800000e+09 -5.863161212e-01 -1.407981504e-01 -5.364861225e-02 -1.452726691e-02 -8.223106464e-01 4.404943049e-01 -1.847432005e-01 5.235199277e-02
1.810000e+09 -5.856829423e-01 -1.413056576e-01 -5.358338319e-02 -1.457967309e-02 -8.232851322e-01 4.428415201e-01 -1.848583033e-01 5.263104037e-02
1.820000e+09 -5.850484612e-01 -1.418095512e-01 -5.351801999e-02 -1.463170697e-02 -8.242649860e-01 4.451870448e-01 -1.849740402e-01 5.290988849e-02
1.830000e+09 -5.844127031e-01 -1.423098325e-01 -5.345252524e-02 -1.468336872e-02 -8.252502071e-01 4.475308689e-01 -1.850904111e-01 5.318853594e-02
1.840000e+09 -5.837756929e-01 -1.428065030e-01 -5.338690152e-02 -1.473465847e-02 -8.262407950e-01 4.498729823e-01 -1.852074159e-01 5.346698152e-02
1.850000e+09 -5.831374554e-01 -1.432995646e-01 -5.332115138e-02 -1.478557642e-02 -8.272367488e-01 4.522133748e-01 -1.853250546e-01 5.374522404e-02
1.860000e+09 -5.824980154e-01 -1.437890191e-01 -5.325527737e-02 -1.483612276e-02 -8.282380680e-01 4.545520363e-01 -1.854433271e-01 5.402326229e-02
1.870000e+09 -5.818573977e-01 -1.442748687e-01 -5.318928204e-02 -1.488629770e-02 -8.292447517e-01 4.568889566e-01 -1.855622333e-01 5.430109508e-02
1.880000e+09 -5.812156267e-01 -1.447571155e-01 -5.312316791e-02 -1.493610149e-02 -8.302567994e-01 4.592241255e-01 -1.856817732e-01 5.457872119e-02
1.890000e+09 -5.805727268e-01 -1.452357622e-01 -5.305693751e-02 -1.498553438e-02 -8.312742102e-01 4.615575329e-01 -1.858019465e-01 5.485613944e-02
1.900000e+09 -5.799287225e-01 -1.457108114e-01 -5.299059333e-02 -1.503459664e-02 -8.322969835e-01 4.638891684e-01 -1.859227533e-01 5.513334861e-02
1.910000e+09 -5.792836380e-01 -1.461822660e-01 -5.292413789e-02 -1.508328857e-02 -8.333251185e-01 4.662190218e-01 -1.860441935e-01 5.541034749e-02
1.920000e+09 -5.786374973e-01 -1.466501289e-01 -5.285757366e-02 -1.513161049e-02 -8.343586145e-01 4.685470830e-01 -1.861662670e-01 5.568713488e-02
1.930000e+09 -5.779903246e-01 -1.471144034e-01 -5.279090311e-02 -1.517956271e-02 -8.353974708e-01 4.708733416e-01 -1.862889736e-01 5.596370956e-02
1.940000e+09 -5.773421436e-01 -1.475750929e-01 -5.272412872e-02 -1.522714560e-02 -8.364416865e-01 4.731977874e-01 -1.864123134e-01 5.624007032e-02
1.950000e+09 -5.766929783e-01 -1.480322008e-01 -5.265725292e-02 -1.527435951e-02 -8.374912609e-01 4.755204102e-01 -1.865362862e-01 5.651621596e-02
1.960000e+09 -5.760428522e-01 -1.484857311e-01 -5.259027817e-02 -1.532120483e-02 -8.385461932e-01 4.778411995e-01 -1.866608918e-01 5.679214525e-02
1.970000e+09 -5.753917890e-01 -1.489356875e-01 -5.252320688e-02 -1.536768197e-02 -8.396064827e-01 4.801601452e-01 -1.867861304e-01 5.706785697e-02
1.980000e+09 -5.747398120e-01 -1.493820741e-01 -5.245604147e-02 -1.541379133e-02 -8.406721285e-01 4.824772368e-01 -1.869120016e-01 5.734334992e-02
1.990000e+09 -5.740869446e-01 -1.498248952e-01 -5.238878435e-02 -1.545953337e-02 -8.417431298e-01 4.847924641e-01 -1.870385055e-01 5.761862287e-02
2.000000e+09 -5.734332100e-01 -1.502641551e-01 -5.232143791e-02 -1.550490853e-02 -8.428194859e-01 4.871058166e-01 -1.871656420e-01 5.789367459e-02
2.010000e+09 -5.727786313e-01 -1.506998585e-01 -5.225400452e-02 -1.554991728e-02 -8.439011959e-01 4.894172841e-01 -1.872934109e-01 5.816850387e-02
2.020000e+09 -5.721232315e-01 -1.511320100e-01 -5.218648654e-02 -1.559456011e-02 -8.449882589e-01 4.917268562e-01 -1.874218121e-01 5.844310948e-02
2.030000e+09 -5.714670333e-01 -1.515606146e-01 -5.211888634e-02 -1.563883752e-02 -8.460806742e-01 4.940345224e-01 -1.875508457e-01 5.871749019e-02
2.040000e+09 -5.708100595e-01 -1.519856772e-01 -5.205120626e-02 -1.568275004e-02 -8.471784408e-01 4.963402724e-01 -1.876805113e-01 5.899164478e-02
2.050000e+09 -5.701523328e-01 -1.524072031e-01 -5.198344862e-02 -1.572629819e-02 -8.482815580e-01 4.986440958e-01 -1.878108090e-01 5.926557202e-02
2.060000e+09 -5.694938756e-01 -1.528251977e-01 -5.191561573e-02 -1.576948253e-02 -8.493900248e-01 5.009459820e-01 -1.879417387e-01 5.953927067e-02
2.070000e+09 -5.688347101e-01 -1.532396663e-01 -5.184770990e-02 -1.581230363e-02 -8.505038403e-01 5.032459207e-01 -1.880733003e-01 5.981273950e-02
2.080000e+09 -5.681748587e-01 -1.536506148e-01 -5.177973342e-02 -1.585476206e-02 -8.516230037e-01 5.055439015e-01 -1.882054935e-01 6.008597728e-02
2.090000e+09 -5.675143435e-01 -1.540580488e-01 -5.171168857e-02 -1.589685843e-02 -8.527475141e-01 5.078399137e-01 -1.883383184e-01 6.035898277e-02
2.100000e+09 -5.668531864e-01 -1.544619743e-01 -5.164357760e-02 -1.593859334e-02 -8.538773706e-01 5.101339470e-01 -1.884717749e-01 6.063175474e-02
2.110000e+09 -5.661914092e-01 -1.548623975e-01 -5.157540277e-02 -1.597996743e-02 -8.550125721e-01 5.124259909e-01 -1.886058628e-01 6.090429193e-02
2.120000e+09 -5.655290336e-01 -1.552593244e-01 -5.150716631e-02 -1.602098134e-02 -8.561531179e-01 5.147160348e-01 -1.887405820e-01 6.117659312e-02
2.130000e+09 -5.648660813e-01 -1.556527616e-01 -5.143887045e-02 -1.606163572e-02 -8.572990069e-01 5.170040681e-01 -1.888759324e-01 6.144865706e-02
2.140000e+09 -5.642025736e-01 -1.560427155e-01 -5.137051739e-02 -1.610193124e-02 -8.584502383e-01 5.192900805e-01 -1.890119139e-01 6.172048251e-02
2.150000e+09 -5.635385319e-01 -1.564291928e-01 -5.130210933e-02 -1.614186858e-02 -8.596068109e-01 5.215740612e-01 -1.891485263e-01 6.199206821e-02
2.160000e+09 -5.628739774e-01 -1.568122001e-01 -5.123364846e-02 -1.618144845e-02 -8.607687240e-01 5.238559997e-01 -1.892857697e-01 6.226341293e-02
2.170000e+09 -5.622089310e-01 -1.571917446e-01 -5.116513693e-02 -1.622067156e-02 -8.619359764e-01 5.261358855e-01 -1.894236438e-01 6.253451540e-02
2.180000e+09 -5.615434138e-01 -1.575678331e-01 -5.109657692e-02 -1.625953864e-02 -8.631085672e-01 5.284137078e-01 -1.895621485e-01 6.280537439e-02
2.190000e+09 -5.608774465e-01 -1.579404728e-01 -5.102797055e-02 -1.629805041e-02 -8.642864954e-01 5.306894562e-01 -1.897012838e-01 6.307598863e-02
2.200000e+09 -5.602110498e-01 -1.583096711e-01 -5.095931995e-02 -1.633620763e-02 -8.654697600e-01 5.329631200e-01 -1.898410494e-01 6.334635687e-02
2.210000e+09 -5.595442441e-01 -1.586754354e-01 -5.089062724e-02 -1.637401108e-02 -8.666583599e-01 5.352346885e-01 -1.899814454e-01 6.361647785e-02
2.220000e+09 -5.588770498e-01 -1.590377732e-01 -5.082189451e-02 -1.641146151e-02 -8.678522941e-01 5.375041511e-01 -1.901224715e-01 6.388635032e-02
2.230000e+09 -5.582094872e-01 -1.593966921e-01 -5.075312386e-02 -1.644855974e-02 -8.690515616e-01 5.397714970e-01 -1.902641276e-01 6.415597302e-02
2.240000e+09 -5.575415764e-01 -1.597522001e-01 -5.068431735e-02 -1.648530654e-02 -8.702561612e-01 5.420367157e-01 -1.904064136e-01 6.442534468e-02
2.250000e+09 -5.568733373e-01 -1.601043049e-01 -5.061547703e-02 -1.652170275e-02 -8.714660919e-01 5.442997963e-01 -1.905493294e-01 6.469446404e-02
2.260000e+09 -5.562047897e-01 -1.604530145e-01 -5.054660496e-02 -1.655774918e-02 -8.726813527e-01 5.465607283e-01 -1.906928749e-01 6.496332983e-02
2.270000e+09 -5.555359535e-01 -1.607983372e-01 -5.047770316e-02 -1.659344668e-02 -8.739019424e-01 5.488195007e-01 -1.908370499e-01 6.523194079e-02
2.280000e+09 -5.548668480e-01 -1.611402811e-01 -5.040877364e-02 -1.662879609e-02 -8.751278599e-01 5.510761030e-01 -1.909818543e-01 6.550029565e-02
2.290000e+09 -5.541974927e-01 -1.614788546e-01 -5.033981841e-02 -1.666379827e-02 -8.763591042e-01 5.533305242e-01 -1.911272880e-01 6.576839314e-02
2.300000e+09 -5.535279070e-01 -1.618140662e-01 -5.027083944e-02 -1.669845410e-02 -8.775956739e-01 5.555827537e-01 -1.912733508e-01 6.603623198e-02
2.310000e+09 -5.528581099e-01 -1.621459245e-01 -5.020183872e-02 -1.673276446e-02 -8.788375682e-01 5.578327807e-01 -1.914200426e-01 6.630381090e-02
2.320000e+09 -5.521881204e-01 -1.624744380e-01 -5.013281820e-02 -1.676673023e-02 -8.800847856e-01 5.600805943e-01 -1.915673633e-01 6.657112863e-02
2.330000e+09 -5.515179573e-01 -1.627996156e-01 -5.006377981e-02 -1.680035234e-02 -8.813373252e-01 5.623261836e-01 -1.917153127e-01 6.683818388e-02
2.340000e+09 -5.508476395e-01 -1.631214661e-01 -4.999472550e-02 -1.683363168e-02 -8.825951857e-01 5.645695380e-01 -1.918638907e-01 6.710497538e-02
2.350000e+09 -5.501771855e-01 -1.634399986e-01 -4.992565717e-02 -1.686656918e-02 -8.838583660e-01 5.668106464e-01 -1.920130971e-01 6.737150184e-02
2.360000e+09 -5.495066136e-01 -1.637552221e-01 -4.985657672e-02 -1.689916579e-02 -8.851268647e-01 5.690494981e-01 -1.921629319e-01 6.763776199e-02
2.370000e+09 -5.488359423e-01 -1.640671458e-01 -4.978748604e-02 -1.693142243e-02 -8.864006808e-01 5.712860821e-01 -1.923133948e-01 6.790375453e-02
2.380000e+09 -5.481651896e-01 -1.643757789e-01 -4.971838699e-02 -1.696334008e-02 -8.876798129e-01 5.735203875e-01 -1.924644857e-01 6.816947818e-02
2.390000e+09 -5.474943736e-01 -1.646811308e-01 -4.964928144e-02 -1.699491968e-02 -8.889642599e-01 5.757524035e-01 -1.926162046e-01 6.843493165e-02
2.400000e+09 -5.468235122e-01 -1.649832109e-01 -4.958017122e-02 -1.702616222e-02 -8.902540204e-01 5.779821190e-01 -1.927685511e-01 6.870011364e-02
2.410000e+09 -5.461526230e-01 -1.652820287e-01 -4.951105817e-02 -1.705706868e-02 -8.915490933e-01 5.802095232e-01 -1.929215252e-01 6.896502288e-02
2.420000e+09 -5.454817237e-01 -1.655775940e-01 -4.944194409e-02 -1.708764004e-02 -8.928494771e-01 5.824346050e-01 -1.930751268e-01 6.922965805e-02
2.430000e+09 -5.448108318e-01 -1.658699163e-01 -4.937283078e-02 -1.711787731e-02 -8.941551707e-01 5.846573536e-01 -1.932293556e-01 6.949401787e-02
2.440000e+09 -5.441399644e-01 -1.661590056e-01 -4.930372003e-02 -1.714778150e-02 -8.954661727e-01 5.868777578e-01 -1.933842116e-01 6.975810104e-02
2.450000e+09 -5.434691389e-01 -1.664448716e-01 -4.923461360e-02 -1.717735362e-02 -8.967824818e-01 5.890958066e-01 -1.935396945e-01 7.002190626e-02
2.460000e+09 -5.427983722e-01 -1.667275242e-01 -4.916551325e-02 -1.720659470e-02 -8.981040967e-01 5.913114891e-01 -1.936958043e-01 7.028543221e-02
2.470000e+09 -5.421276812e-01 -1.670069737e-01 -4.909642072e-02 -1.723550578e-02 -8.994310160e-01 5.935247942e-01 -1.938525407e-01 7.054867761e-02
2.480000e+09 -5.414570827e-01 -1.672832299e-01 -4.902733773e-02 -1.726408788e-02 -9.007632383e-01 5.957357108e-01 -1.940099036e-01 7.081164115e-02
2.490000e+09 -5.407865933e-01 -1.675563032e-01 -4.895826600e-02 -1.729234207e-02 -9.021007623e-01 5.979442279e-01 -1.941678928e-01 7.107432151e-02
2.500000e+09 -5.401162294e-01 -1.678262038e-01 -4.888920721e-02 -1.732026940e-02 -9.034435866e-01 6.001503343e-01 -1.943265082e-01 7.133671739e-02
2.510000e+09 -5.394460073e-01 -1.680929420e-01 -4.882016306e-02 -1.734787093e-02 -9.047917097e-01 6.023540190e-01 -1.944857496e-01 7.159882748e-02
2.520000e+09 -5.387759433e-01 -1.683565283e-01 -4.875113521e-02 -1.737514773e-02 -9.061451303e-01 6.045552708e-01 -1.946456169e-01 7.186065046e-02
2.530000e+09 -5.381060534e-01 -1.686169730e-01 -4.868212531e-02 -1.740210089e-02 -9.075038470e-01 6.067540786e-01 -1.948061098e-01 7.212218501e-02
2.540000e+09 -5.374363534e-01 -1.688742867e-01 -4.861313499e-02 -1.742873149e-02 -9.088678582e-01 6.089504312e-01 -1.949672282e-01 7.238342983e-02
2.550000e+09 -5.367668592e-01 -1.691284800e-01 -4.854416590e-02 -1.745504062e-02 -9.102371625e-01 6.111443174e-01 -1.951289720e-01 7.264438359e-02
2.560000e+09 -5.360975863e-01 -1.693795637e-01 -4.847521962e-02 -1.748102938e-02 -9.116117585e-01 6.133357261e-01 -1.952913409e-01 7.290504497e-02
2.570000e+09 -5.354285503e-01 -1.696275483e-01 -4.840629777e-02 -1.750669888e-02 -9.129916446e-01 6.155246461e-01 -1.954543348e-01 7.316541264e-02
2.580000e+09 -5.347597665e-01 -1.698724448e-01 -4.833740191e-02 -1.753205022e-02 -9.143768194e-01 6.177110661e-01 -1.956179535e-01 7.342548529e-02
2.590000e+09 -5.340912501e-01 -1.701142639e-01 -4.826853361e-02 -1.755708452e-02 -9.157672813e-01 6.198949748e-01 -1.957821968e-01 7.368526158e-02
2.600000e+09 -5.334230161e-01 -1.703530165e-01 -4.819969444e-02 -1.758180292e-02 -9.171630287e-01 6.220763611e-01 -1.959470646e-01 7.394474019e-02
2.610000e+09 -5.327550795e-01 -1.705887137e-01 -4.813088592e-02 -1.760620653e-02 -9.185640603e-01 6.242552136e-01 -1.961125566e-01 7.420391979e-02
2.620000e+09 -5.320874551e-01 -1.708213665e-01 -4.806210957e-02 -1.763029650e-02 -9.199703743e-01 6.264315211e-01 -1.962786728e-01 7.446279903e-02
2.630000e+09 -5.314201575e-01 -1.710509858e-01 -4.799336691e-02 -1.765407396e-02 -9.213819691e-01 6.286052723e-01 -1.964454128e-01 7.472137660e-02
2.640000e+09 -5.307532011e-01 -1.712775830e-01 -4.792465943e-02 -1.767754006e-02 -9.227988433e-01 6.307764558e-01 -1.966127765e-01 7.497965114e-02
2.650000e+09 -5.300866005e-01 -1.715011690e-01 -4.785598862e-02 -1.770069595e-02 -9.242209952e-01 6.329450602e-01 -1.967807638e-01 7.523762133e-02
2.660000e+09 -5.294203698e-01 -1.717217551e-01 -4.778735593e-02 -1.772354279e-02 -9.256484231e-01 6.351110744e-01 -1.969493743e-01 7.549528582e-02
2.670000e+09 -5.287545231e-01 -1.719393527e-01 -4.771876282e-02 -1.774608174e-02 -9.270811254e-01 6.372744867e-01 -1.971186081e-01 7.575264328e-02
2.680000e+09 -5.280890744e-01 -1.721539731e-01 -4.765021073e-02 -1.776831397e-02 -9.285191005e-01 6.394352860e-01 -1.972884647e-01 7.600969234e-02
2.690000e+09 -5.274240375e-01 -1.723656275e-01 -4.758170108e-02 -1.779024064e-02 -9.299623467e-01 6.415934607e-01 -1.974589441e-01 7.626643167e-02
2.700000e+09 -5.267594260e-01 -1.725743274e-01 -4.751323528e-02 -1.781186293e-02 -9.314108623e-01 6.437489995e-01 -1.976300461e-01 7.652285993e-02
2.710000e+09 -5.260952536e-01 -1.727800843e-01 -4.744481473e-02 -1.783318203e-02 -9.328646455e-01 6.459018909e-01 -1.978017704e-01 7.677897575e-02
2.720000e+09 -5.254315336e-01 -1.729829096e-01 -4.737644081e-02 -1.785419911e-02 -9.343236948e-01 6.480521234e-01 -1.979741168e-01 7.703477779e-02
2.730000e+09 -5.247682794e-01 -1.731828149e-01 -4.730811489e-02 -1.787491536e-02 -9.357880082e-01 6.501996856e-01 -1.981470852e-01 7.729026469e-02
2.740000e+09 -5.241055040e-01 -1.733798118e-01 -4.723983832e-02 -1.789533197e-02 -9.372575841e-01 6.523445660e-01 -1.983206753e-01 7.754543510e-02
2.750000e+09 -5.234432205e-01 -1.735739118e-01 -4.717161245e-02 -1.791545015e-02 -9.387324207e-01 6.544867530e-01 -1.984948870e-01 7.780028765e-02
2.760000e+09 -5.227814418e-01 -1.737651266e-01 -4.710343859e-02 -1.793527109e-02 -9.402125162e-01 6.566262352e-01 -1.986697199e-01 7.805482099e-02
2.770000e+09 -5.221201806e-01 -1.739534679e-01 -4.703531807e-02 -1.795479598e-02 -9.416978688e-01 6.587630010e-01 -1.988451740e-01 7.830903376e-02
2.780000e+09 -5.214594494e-01 -1.741389473e-01 -4.696725217e-02 -1.797402605e-02 -9.431884767e-01 6.608970389e-01 -1.990212489e-01 7.856292458e-02
2.790000e+09 -5.207992609e-01 -1.743215767e-01 -4.689924219e-02 -1.799296249e-02 -9.446843380e-01 6.630283372e-01 -1.991979446e-01 7.881649209e-02
2.800000e+09 -5.201396273e-01 -1.745013677e-01 -4.683128940e-02 -1.801160653e-02 -9.461854509e-01 6.651568844e-01 -1.993752607e-01 7.906973493e-02
2.810000e+09 -5.194805608e-01 -1.746783322e-01 -4.676339506e-02 -1.802995937e-02 -9.476918134e-01 6.672826689e-01 -1.995531970e-01 7.932265172e-02
2.820000e+09 -5.188220736e-01 -1.748524820e-01 -4.669556041e-02 -1.804802223e-02 -9.492034238e-01 6.694056790e-01 -1.997317533e-01 7.957524110e-02
2.830000e+09 -5.181641775e-01 -1.750238290e-01 -4.662778668e-02 -1.806579634e-02 -9.507202801e-01 6.715259031e-01 -1.999109295e-01 7.982750167e-02
2.840000e+09 -5.175068845e-01 -1.751923850e-01 -4.656007510e-02 -1.808328292e-02 -9.522423804e-01 6.736433296e-01 -2.000907251e-01 8.007943208e-02
2.850000e+09 -5.168502061e-01 -1.753581620e-01 -4.649242686e-02 -1.810048319e-02 -9.537697227e-01 6.757579467e-01 -2.002711402e-01 8.033103094e-02
2.860000e+09 -5.161941540e-01 -1.755211718e-01 -4.642484315e-02 -1.811739839e-02 -9.553023050e-01 6.778697427e-01 -2.004521743e-01 8.058229686e-02
2.870000e+09 -5.155387396e-01 -1.756814265e-01 -4.635732516e-02 -1.813402974e-02 -9.568401255e-01 6.799787060e-01 -2.006338273e-01 8.083322847e-02
2.880000e+09 -5.148839743e-01 -1.758389379e-01 -4.628987405e-02 -1.815037849e-02 -9.583831820e-01 6.820848248e-01 -2.008160989e-01 8.108382438e-02
2.890000e+09 -5.142298690e-01 -1.759937181e-01 -4.622249097e-02 -1.816644585e-02 -9.599314725e-01 6.841880874e-01 -2.009989890e-01 8.133408320e-02
2.900000e+09 -5.135764350e-01 -1.761457791e-01 -4.615517706e-02 -1.818223308e-02 -9.614849952e-01 6.862884819e-01 -2.011824972e-01 8.158400355e-02
2.910000e+09 -5.129236832e-01 -1.762951329e-01 -4.608793345e-02 -1.819774140e-02 -9.630437477e-01 6.883859967e-01 -2.013666233e-01 8.183358403e-02
2.920000e+09 -5.122716244e-01 -1.764417915e-01 -4.602076125e-02 -1.821297206e-02 -9.646077282e-01 6.904806198e-01 -2.015513671e-01 8.208282325e-02
2.930000e+09 -5.116202691e-01 -1.765857671e-01 -4.595366155e-02 -1.822792631e-02 -9.661769345e-01 6.925723396e-01 -2.017367283e-01 8.233171982e-02
2.940000e+09 -5.109696281e-01 -1.767270716e-01 -4.588663545e-02 -1.824260538e-02 -9.677513645e-01 6.946611441e-01 -2.019227067e-01 8.258027233e-02
2.950000e+09 -5.103197116e-01 -1.768657171e-01 -4.581968402e-02 -1.825701052e-02 -9.693310160e-01 6.967470215e-01 -2.021093020e-01 8.282847939e-02
2.960000e+09 -5.096705301e-01 -1.770017158e-01 -4.575280832e-02 -1.827114297e-02 -9.709158870e-01 6.988299599e-01 -2.022965141e-01 8.307633960e-02
2.970000e+09 -5.090220937e-01 -1.771350797e-01 -4.568600940e-02 -1.828500399e-02 -9.725059752e-01 7.009099475e-01 -2.024843425e-01 8.332385154e-02
2.980000e+09 -5.083744124e-01 -1.772658210e-01 -4.561928829e-02 -1.829859481e-02 -9.741012784e-01 7.029869723e-01 -2.026727871e-01 8.357101382e-02
2.990000e+09 -5.077274962e-01 -1.773939518e-01 -4.555264603e-02 -1.831191670e-02 -9.757017945e-01 7.050610224e-01 -2.028618476e-01 8.381782504e-02
3.000000e+09 -5.070813549e-01 -1.775194842e-01 -4.548608361e-02 -1.832497090e-02 -9.773075212e-01 7.071320859e-01 -2.030515238e-01 8.406428376e-02
