! rfsim (KiCad + openEMS)
# HZ S RI R 50
1.000000e+09 -5.956517695e-01 1.480426160e-02 -2.413873118e-01 3.139759692e-01 0.000000000e+00 0.000000000e+00 0.000000000e+00 0.000000000e+00
1.003200e+09 -5.956812294e-01 1.484325396e-02 -2.420136492e-01 3.148024687e-01 0.000000000e+00 0.000000000e+00 0.000000000e+00 0.000000000e+00
1.006400e+09 -5.957107561e-01 1.488217355e-02 -2.426414049e-01 3.156274210e-01 0.000000000e+00 0.000000000e+00 0.000000000e+00 0.000000000e+00
1.009600e+09 -5.957403492e-01 1.492102025e-02 -2.432705742e-01 3.164508234e-01 0.000000000e+00 0.000000000e+00 0.000000000e+00 0.000000000e+00
1.012800e+09 -5.957700086e-01 1.495979394e-02 -2.439011522e-01 3.172726732e-01 0.000000000e+00 0.000000000e+00 0.000000000e+00 0.000000000e+00
1.016000e+09 -5.957997340e-01 1.499849450e-02 -2.445331343e-01 3.180929681e-01 0.000000000e+00 0.000000000e+00 0.000000000e+00 0.000000000e+00
1.019200e+09 -5.958295253e-01 1.503712181e-02 -2.451665155e-01 3.189117054e-01 0.000000000e+00 0.000000000e+00 0.000000000e+00 0.000000000e+00
1.022400e+09 -5.958593822e-01 1.507567575e-02 -2.458012912e-01 3.197288826e-01 0.000000000e+00 0.000000000e+00 0.000000000e+00 0.000000000e+00
1.025600e+09 -5.958893044e-01 1.511415621e-02 -2.464374564e-01 3.205444972e-01 0.000000000e+00 0.000000000e+00 0.000000000e+00 0.000000000e+00
1.028800e+09 -5.959192918e-01 1.515256306e-02 -2.470750064e-01 3.213585468e-01 0.000000000e+00 0.000000000e+00 0.000000000e+00 0.000000000e+00
1.032000e+09 -5.959493441e-01 1.519089619e-02 -2.477139364e-01 3.221710288e-01 0.000000000e+00 0.000000000e+00 0.000000000e+00 0.000000000e+00
1.035200e+09 -5.959794611e-01 1.522915549e-02 -2.483542416e-01 3.229819409e-01 0.000000000e+00 0.000000000e+00 0.000000000e+00 0.000000000e+00
1.038400e+09 -5.960096425e-01 1.526734084e-02 -2.489959171e-01 3.237912805e-01 0.000000000e+00 0.000000000e+00 0.000000000e+00 0.000000000e+00
1.041600e+09 -5.960398882e-01 1.530545213e-02 -2.496389581e-01 3.245990454e-01 0.000000000e+00 0.000000000e+00 0.000000000e+00 0.000000000e+00
1.044800e+09 -5.960701980e-01 1.534348925e-02 -2.502833598e-01 3.254052330e-01 0.000000000e+00 0.000000000e+00 0.000000000e+00 0.000000000e+00
1.048000e+09 -5.961005715e-01 1.538145208e-02 -2.509291173e-01 3.262098411e-01 0.000000000e+00 0.000000000e+00 0.000000000e+00 0.000000000e+00
1.051200e+09 -5.961310085e-01 1.541934051e-02 -2.515762260e-01 3.270128672e-01 0.000000000e+00 0.000000000e+00 0.000000000e+00 0.000000000e+00
1.054400e+09 -5.961615089e-01 1.545715444e-02 -2.522246808e-01 3.278143090e-01 0.000000000e+00 0.000000000e+00 0.000000000e+00 0.000000000e+00
1.057600e+09 -5.961920724e-01 1.549489374e-02 -2.528744769e-01 3.286141643e-01 0.000000000e+00 0.000000000e+00 0.000000000e+00 0.000000000e+00
1.060800e+09 -5.962226988e-01 1.553255833e-02 -2.535256097e-01 3.294124306e-01 0.000000000e+00 0.000000000e+00 0.000000000e+00 0.000000000e+00
1.064000e+09 -5.962533878e-01 1.557014808e-02 -2.541780740e-01 3.302091058e-01 0.000000000e+00 0.000000000e+00 0.000000000e+00 0.000000000e+00
1.067200e+09 -5.962841392e-01 1.560766290e-02 -2.548318653e-01 3.310041875e-01 0.000000000e+00 0.000000000e+00 0.000000000e+00 0.000000000e+00
1.070400e+09 -5.963149528e-01 1.564510266e-02 -2.554869785e-01 3.317976735e-01 0.000000000e+00 0.000000000e+00 0.000000000e+00 0.000000000e+00
1.073600e+09 -5.963458284e-01 1.568246728e-02 -2.561434089e-01 3.325895615e-01 0.000000000e+00 0.000000000e+00 0.000000000e+00 0.000000000e+00
1.076800e+09 -5.963767658e-01 1.571975665e-02 -2.568011515e-01 3.333798495e-01 0.000000000e+00 0.000000000e+00 0.000000000e+00 0.000000000e+00
1.080000e+09 -5.964077646e-01 1.575697066e-02 -2.574602016e-01 3.341685350e-01 0.000000000e+00 0.000000000e+00 0.000000000e+00 0.000000000e+00
1.083200e+09 -5.964388247e-01 1.579410920e-02 -2.581205542e-01 3.349556161e-01 0.000000000e+00 0.000000000e+00 0.000000000e+00 0.000000000e+00
1.086400e+09 -5.964699459e-01 1.583117219e-02 -2.587822046e-01 3.357410904e-01 0.000000000e+00 0.000000000e+00 0.000000000e+00 0.000000000e+00
1.089600e+09 -5.965011279e-01 1.586815951e-02 -2.594451478e-01 3.365249559e-01 0.000000000e+00 0.000000000e+00 0.000000000e+00 0.000000000e+00
1.092800e+09 -5.965323704e-01 1.590507108e-02 -2.601093790e-01 3.373072105e-01 0.000000000e+00 0.000000000e+00 0.000000000e+00 0.000000000e+00
1.096000e+09 -5.965636734e-01 1.594190678e-02 -2.607748933e-01 3.380878520e-01 0.000000000e+00 0.000000000e+00 0.000000000e+00 0.000000000e+00
1.099200e+09 -5.965950365e-01 1.597866651e-02 -2.614416859e-01 3.388668783e-01 0.000000000e+00 0.000000000e+00 0.000000000e+00 0.000000000e+00
1.102400e+09 -5.966264595e-01 1.601535020e-02 -2.621097519e-01 3.396442874e-01 0.000000000e+00 0.000000000e+00 0.000000000e+00 0.000000000e+00
1.105600e+09 -5.966579421e-01 1.605195772e-02 -2.627790863e-01 3.404200772e-01 0.000000000e+00 0.000000000e+00 0.000000000e+00 0.000000000e+00
1.108800e+09 -5.966894843e-01 1.608848900e-02 -2.634496844e-01 3.411942457e-01 0.000000000e+00 0.000000000e+00 0.000000000e+00 0.000000000e+00
1.112000e+09 -5.967210856e-01 1.612494393e-02 -2.641215412e-01 3.419667909e-01 0.000000000e+00 0.000000000e+00 0.000000000e+00 0.000000000e+00
1.115200e+09 -5.967527459e-01 1.616132243e-02 -2.647946520e-01 3.427377107e-01 0.000000000e+00 0.000000000e+00 0.000000000e+00 0.000000000e+00
1.118400e+09 -5.967844650e-01 1.619762439e-02 -2.654690117e-01 3.435070032e-01 0.000000000e+00 0.000000000e+00 0.000000000e+00 0.000000000e+00
1.121600e+09 -5.968162426e-01 1.623384972e-02 -2.661446155e-01 3.442746664e-01 0.000000000e+00 0.000000000e+00 0.000000000e+00 0.000000000e+00
1.124800e+09 -5.968480785e-01 1.626999834e-02 -2.668214586e-01 3.450406983e-01 0.000000000e+00 0.000000000e+00 0.000000000e+00 0.000000000e+00
1.128000e+09 -5.968799725e-01 1.630607015e-02 -2.674995360e-01 3.458050971e-01 0.000000000e+00 0.000000000e+00 0.000000000e+00 0.000000000e+00
1.131200e+09 -5.969119244e-01 1.634206506e-02 -2.681788429e-01 3.465678608e-01 0.000000000e+00 0.000000000e+00 0.000000000e+00 0.000000000e+00
1.134400e+09 -5.969439338e-01 1.637798298e-02 -2.688593744e-01 3.473289875e-01 0.000000000e+00 0.000000000e+00 0.000000000e+00 0.000000000e+00
1.137600e+09 -5.969760006e-01 1.641382383e-02 -2.695411256e-01 3.480884753e-01 0.000000000e+00 0.000000000e+00 0.000000000e+00 0.000000000e+00
1.140800e+09 -5.970081246e-01 1.644958751e-02 -2.702240915e-01 3.488463224e-01 0.000000000e+00 0.000000000e+00 0.000000000e+00 0.000000000e+00
1.144000e+09 -5.970403055e-01 1.648527395e-02 -2.709082674e-01 3.496025269e-01 0.000000000e+00 0.000000000e+00 0.000000000e+00 0.000000000e+00
1.147200e+09 -5.970725431e-01 1.652088304e-02 -2.715936483e-01 3.503570870e-01 0.000000000e+00 0.000000000e+00 0.000000000e+00 0.000000000e+00
1.150400e+09 -5.971048372e-01 1.655641472e-02 -2.722802294e-01 3.511100009e-01 0.000000000e+00 0.000000000e+00 0.000000000e+00 0.000000000e+00
1.153600e+09 -5.971371875e-01 1.659186889e-02 -2.729680056e-01 3.518612668e-01 0.000000000e+00 0.000000000e+00 0.000000000e+00 0.000000000e+00
1.156800e+09 -5.971695938e-01 1.662724547e-02 -2.736569723e-01 3.526108829e-01 0.000000000e+00 0.000000000e+00 0.000000000e+00 0.000000000e+00
1.160000e+09 -5.972020558e-01 1.666254438e-02 -2.743471244e-01 3.533588475e-01 0.000000000e+00 0.000000000e+00 0.000000000e+00 0.000000000e+00
1.163200e+09 -5.972345735e-01 1.669776553e-02 -2.750384570e-01 3.541051588e-01 0.000000000e+00 0.000000000e+00 0.000000000e+00 0.000000000e+00
1.166400e+09 -5.972671464e-01 1.673290885e-02 -2.757309653e-01 3.548498151e-01 0.000000000e+00 0.000000000e+00 0.000000000e+00 0.000000000e+00
1.169600e+09 -5.972997744e-01 1.676797425e-02 -2.764246444e-01 3.555928147e-01 0.000000000e+00 0.000000000e+00 0.000000000e+00 0.000000000e+00
1.172800e+09 -5.973324572e-01 1.680296166e-02 -2.771194894e-01 3.563341559e-01 0.000000000e+00 0.000000000e+00 0.000000000e+00 0.000000000e+00
1.176000e+09 -5.973651947e-01 1.683787099e-02 -2.778154953e-01 3.570738371e-01 0.000000000e+00 0.000000000e+00 0.000000000e+00 0.000000000e+00
1.179200e+09 -5.973979866e-01 1.687270217e-02 -2.785126574e-01 3.578118565e-01 0.000000000e+00 0.000000000e+00 0.000000000e+00 0.000000000e+00
1.182400e+09 -5.974308326e-01 1.690745513e-02 -2.792109706e-01 3.585482126e-01 0.000000000e+00 0.000000000e+00 0.000000000e+00 0.000000000e+00
1.185600e+09 -5.974637326e-01 1.694212978e-02 -2.799104301e-01 3.592829037e-01 0.000000000e+00 0.000000000e+00 0.000000000e+00 0.000000000e+00
1.188800e+09 -5.974966863e-01 1.697672605e-02 -2.806110310e-01 3.600159282e-01 0.000000000e+00 0.000000000e+00 0.000000000e+00 0.000000000e+00
1.192000e+09 -5.975296934e-01 1.701124386e-02 -2.813127684e-01 3.607472846e-01 0.000000000e+00 0.000000000e+00 0.000000000e+00 0.000000000e+00
1.195200e+09 -5.975627538e-01 1.704568315e-02 -2.820156375e-01 3.614769712e-01 0.000000000e+00 0.000000000e+00 0.000000000e+00 0.000000000e+00
1.198400e+09 -5.975958672e-01 1.708004383e-02 -2.827196332e-01 3.622049866e-01 0.000000000e+00 0.000000000e+00 0.000000000e+00 0.000000000e+00
1.201600e+09 -5.976290333e-01 1.711432584e-02 -2.834247507e-01 3.629313291e-01 0.000000000e+00 0.000000000e+00 0.000000000e+00 0.000000000e+00
1.204800e+09 -5.976622520e-01 1.714852910e-02 -2.841309852e-01 3.636559974e-01 0.000000000e+00 0.000000000e+00 0.000000000e+00 0.000000000e+00
1.208000e+09 -5.976955231e-01 1.718265355e-02 -2.848383317e-01 3.643789897e-01 0.000000000e+00 0.000000000e+00 0.000000000e+00 0.000000000e+00
1.211200e+09 -5.977288462e-01 1.721669912e-02 -2.855467853e-01 3.651003048e-01 0.000000000e+00 0.000000000e+00 0.000000000e+00 0.000000000e+00
1.214400e+09 -5.977622212e-01 1.725066573e-02 -2.862563411e-01 3.658199411e-01 0.000000000e+00 0.000000000e+00 0.000000000e+00 0.000000000e+00
1.217600e+09 -5.977956478e-01 1.728455331e-02 -2.869669943e-01 3.665378972e-01 0.000000000e+00 0.000000000e+00 0.000000000e+00 0.000000000e+00
1.220800e+09 -5.978291258e-01 1.731836181e-02 -2.876787400e-01 3.672541716e-01 0.000000000e+00 0.000000000e+00 0.000000000e+00 0.000000000e+00
1.224000e+09 -5.978626550e-01 1.735209115e-02 -2.883915732e-01 3.679687629e-01 0.000000000e+00 0.000000000e+00 0.000000000e+00 0.000000000e+00
1.227200e+09 -5.978962351e-01 1.738574126e-02 -2.891054890e-01 3.686816698e-01 0.000000000e+00 0.000000000e+00 0.000000000e+00 0.000000000e+00
1.230400e+09 -5.979298660e-01 1.741931209e-02 -2.898204827e-01 3.693928908e-01 0.000000000e+00 0.000000000e+00 0.000000000e+00 0.000000000e+00
1.233600e+09 -5.979635473e-01 1.745280357e-02 -2.905365492e-01 3.701024246e-01 0.000000000e+00 0.000000000e+00 0.000000000e+00 0.000000000e+00
1.236800e+09 -5.979972788e-01 1.748621563e-02 -2.912536838e-01 3.708102699e-01 0.000000000e+00 0.000000000e+00 0.000000000e+00 0.000000000e+00
1.240000e+09 -5.980310604e-01 1.751954821e-02 -2.919718814e-01 3.715164252e-01 0.000000000e+00 0.000000000e+00 0.000000000e+00 0.000000000e+00
1.243200e+09 -5.980648918e-01 1.755280126e-02 -2.926911373e-01 3.722208894e-01 0.000000000e+00 0.000000000e+00 0.000000000e+00 0.000000000e+00
1.246400e+09 -5.980987727e-01 1.758597470e-02 -2.934114465e-01 3.729236610e-01 0.000000000e+00 0.000000000e+00 0.000000000e+00 0.000000000e+00
1.249600e+09 -5.981327030e-01 1.761906848e-02 -2.941328041e-01 3.736247389e-01 0.000000000e+00 0.000000000e+00 0.000000000e+00 0.000000000e+00
1.252800e+09 -5.981666824e-01 1.765208254e-02 -2.948552054e-01 3.743241217e-01 0.000000000e+00 0.000000000e+00 0.000000000e+00 0.000000000e+00
1.256000e+09 -5.982007106e-01 1.768501682e-02 -2.955786453e-01 3.750218082e-01 0.000000000e+00 0.000000000e+00 0.000000000e+00 0.000000000e+00
1.259200e+09 -5.982347875e-01 1.771787127e-02 -2.963031191e-01 3.757177971e-01 0.000000000e+00 0.000000000e+00 0.000000000e+00 0.000000000e+00
1.262400e+09 -5.982689128e-01 1.775064581e-02 -2.970286217e-01 3.764120874e-01 0.000000000e+00 0.000000000e+00 0.000000000e+00 0.000000000e+00
1.265600e+09 -5.983030863e-01 1.778334041e-02 -2.977551485e-01 3.771046777e-01 0.000000000e+00 0.000000000e+00 0.000000000e+00 0.000000000e+00
1.268800e+09 -5.983373077e-01 1.781595500e-02 -2.984826944e-01 3.777955669e-01 0.000000000e+00 0.000000000e+00 0.000000000e+00 0.000000000e+00
1.272000e+09 -5.983715768e-01 1.784848953e-02 -2.992112546e-01 3.784847538e-01 0.000000000e+00 0.000000000e+00 0.000000000e+00 0.000000000e+00
1.275200e+09 -5.984058935e-01 1.788094395e-02 -2.999408243e-01 3.791722372e-01 0.000000000e+00 0.000000000e+00 0.000000000e+00 0.000000000e+00
1.278400e+09 -5.984402574e-01 1.791331819e-02 -3.006713985e-01 3.798580162e-01 0.000000000e+00 0.000000000e+00 0.000000000e+00 0.000000000e+00
1.281600e+09 -5.984746684e-01 1.794561222e-02 -3.014029725e-01 3.805420894e-01 0.000000000e+00 0.000000000e+00 0.000000000e+00 0.000000000e+00
1.284800e+09 -5.985091261e-01 1.797782597e-02 -3.021355412e-01 3.812244559e-01 0.000000000e+00 0.000000000e+00 0.000000000e+00 0.000000000e+00
1.288000e+09 -5.985436305e-01 1.800995939e-02 -3.028691000e-01 3.819051145e-01 0.000000000e+00 0.000000000e+00 0.000000000e+00 0.000000000e+00
1.291200e+09 -5.985781812e-01 1.804201245e-02 -3.036036438e-01 3.825840641e-01 0.000000000e+00 0.000000000e+00 0.000000000e+00 0.000000000e+00
1.294400e+09 -5.986127780e-01 1.807398508e-02 -3.043391679e-01 3.832613038e-01 0.000000000e+00 0.000000000e+00 0.000000000e+00 0.000000000e+00
1.297600e+09 -5.986474207e-01 1.810587723e-02 -3.050756674e-01 3.839368325e-01 0.000000000e+00 0.000000000e+00 0.000000000e+00 0.000000000e+00
1.300800e+09 -5.986821091e-01 1.813768887e-02 -3.058131374e-01 3.846106492e-01 0.000000000e+00 0.000000000e+00 0.000000000e+00 0.000000000e+00
1.304000e+09 -5.987168429e-01 1.816941994e-02 -3.065515731e-01 3.852827529e-01 0.000000000e+00 0.000000000e+00 0.000000000e+00 0.000000000e+00
1.307200e+09 -5.987516220e-01 1.820107039e-02 -3.072909696e-01 3.859531425e-01 0.000000000e+00 0.000000000e+00 0.000000000e+00 0.000000000e+00
1.310400e+09 -5.987864460e-01 1.823264019e-02 -3.080313221e-01 3.866218172e-01 0.000000000e+00 0.000000000e+00 0.000000000e+00 0.000000000e+00
1.313600e+09 -5.988213148e-01 1.826412928e-02 -3.087726258e-01 3.872887759e-01 0.000000000e+00 0.000000000e+00 0.000000000e+00 0.000000000e+00
1.316800e+09 -5.988562281e-01 1.829553762e-02 -3.095148757e-01 3.879540178e-01 0.000000000e+00 0.000000000e+00 0.000000000e+00 0.000000000e+00
1.320000e+09 -5.988911856e-01 1.832686517e-02 -3.102580671e-01 3.886175419e-01 0.000000000e+00 0.000000000e+00 0.000000000e+00 0.000000000e+00
1.323200e+09 -5.989261873e-01 1.835811189e-02 -3.110021951e-01 3.892793473e-01 0.000000000e+00 0.000000000e+00 0.000000000e+00 0.000000000e+00
1.326400e+09 -5.989612328e-01 1.838927773e-02 -3.117472548e-01 3.899394331e-01 0.000000000e+00 0.000000000e+00 0.000000000e+00 0.000000000e+00
1.329600e+09 -5.989963220e-01 1.842036265e-02 -3.124932415e-01 3.905977985e-01 0.000000000e+00 0.000000000e+00 0.000000000e+00 0.000000000e+00
1.332800e+09 -5.990314545e-01 1.845136661e-02 -3.132401504e-01 3.912544425e-01 0.000000000e+00 0.000000000e+00 0.000000000e+00 0.000000000e+00
1.336000e+09 -5.990666302e-01 1.848228958e-02 -3.139879765e-01 3.919093644e-01 0.000000000e+00 0.000000000e+00 0.000000000e+00 0.000000000e+00
1.339200e+09 -5.991018488e-01 1.851313151e-02 -3.147367151e-01 3.925625634e-01 0.000000000e+00 0.000000000e+00 0.000000000e+00 0.000000000e+00
1.342400e+09 -5.991371101e-01 1.854389236e-02 -3.154863613e-01 3.932140385e-01 0.000000000e+00 0.000000000e+00 0.000000000e+00 0.000000000e+00
1.345600e+09 -5.991724139e-01 1.857457211e-02 -3.162369103e-01 3.938637891e-01 0.000000000e+00 0.000000000e+00 0.000000000e+00 0.000000000e+00
1.348800e+09 -5.992077600e-01 1.860517070e-02 -3.169883574e-01 3.945118143e-01 0.000000000e+00 0.000000000e+00 0.000000000e+00 0.000000000e+00
1.352000e+09 -5.992431481e-01 1.863568811e-02 -3.177406976e-01 3.951581134e-01 0.000000000e+00 0.000000000e+00 0.000000000e+00 0.000000000e+00
1.355200e+09 -5.992785780e-01 1.866612431e-02 -3.184939262e-01 3.958026856e-01 0.000000000e+00 0.000000000e+00 0.000000000e+00 0.000000000e+00
1.358400e+09 -5.993140494e-01 1.869647924e-02 -3.192480384e-01 3.964455303e-01 0.000000000e+00 0.000000000e+00 0.000000000e+00 0.000000000e+00
1.361600e+09 -5.993495623e-01 1.872675289e-02 -3.200030294e-01 3.970866466e-01 0.000000000e+00 0.000000000e+00 0.000000000e+00 0.000000000e+00
1.364800e+09 -5.993851162e-01 1.875694522e-02 -3.207588944e-01 3.977260340e-01 0.000000000e+00 0.000000000e+00 0.000000000e+00 0.000000000e+00
1.368000e+09 -5.994207111e-01 1.878705619e-02 -3.215156286e-01 3.983636916e-01 0.000000000e+00 0.000000000e+00 0.000000000e+00 0.000000000e+00
1.371200e+09 -5.994563466e-01 1.881708579e-02 -3.222732271e-01 3.989996189e-01 0.000000000e+00 0.000000000e+00 0.000000000e+00 0.000000000e+00
1.374400e+09 -5.994920226e-01 1.884703396e-02 -3.230316853e-01 3.996338152e-01 0.000000000e+00 0.000000000e+00 0.000000000e+00 0.000000000e+00
1.377600e+09 -5.995277388e-01 1.887690069e-02 -3.237909982e-01 4.002662798e-01 0.000000000e+00 0.000000000e+00 0.000000000e+00 0.000000000e+00
1.380800e+09 -5.995634950e-01 1.890668595e-02 -3.245511613e-01 4.008970121e-01 0.000000000e+00 0.000000000e+00 0.000000000e+00 0.000000000e+00
1.384000e+09 -5.995992910e-01 1.893638970e-02 -3.253121695e-01 4.015260116e-01 0.000000000e+00 0.000000000e+00 0.000000000e+00 0.000000000e+00
1.387200e+09 -5.996351265e-01 1.896601192e-02 -3.260740183e-01 4.021532776e-01 0.000000000e+00 0.000000000e+00 0.000000000e+00 0.000000000e+00
1.390400e+09 -5.996710014e-01 1.899555258e-02 -3.268367028e-01 4.027788095e-01 0.000000000e+00 0.000000000e+00 0.000000000e+00 0.000000000e+00
1.393600e+09 -5.997069153e-01 1.902501166e-02 -3.276002182e-01 4.034026069e-01 0.000000000e+00 0.000000000e+00 0.000000000e+00 0.000000000e+00
1.396800e+09 -5.997428682e-01 1.905438912e-02 -3.283645599e-01 4.040246691e-01 0.000000000e+00 0.000000000e+00 0.000000000e+00 0.000000000e+00
1.400000e+09 -5.997788597e-01 1.908368495e-02 -3.291297229e-01 4.046449956e-01 0.000000000e+00 0.000000000e+00 0.000000000e+00 0.000000000e+00
1.403200e+09 -5.998148896e-01 1.911289912e-02 -3.298957027e-01 4.052635859e-01 0.000000000e+00 0.000000000e+00 0.000000000e+00 0.000000000e+00
1.406400e+09 -5.998509577e-01 1.914203161e-02 -3.306624943e-01 4.058804395e-01 0.000000000e+00 0.000000000e+00 0.000000000e+00 0.000000000e+00
1.409600e+09 -5.998870638e-01 1.917108239e-02 -3.314300932e-01 4.064955559e-01 0.000000000e+00 0.000000000e+00 0.000000000e+00 0.000000000e+00
1.412800e+09 -5.999232077e-01 1.920005144e-02 -3.321984945e-01 4.071089347e-01 0.000000000e+00 0.000000000e+00 0.000000000e+00 0.000000000e+00
1.416000e+09 -5.999593891e-01 1.922893874e-02 -3.329676935e-01 4.077205753e-01 0.000000000e+00 0.000000000e+00 0.000000000e+00 0.000000000e+00
1.419200e+09 -5.999956079e-01 1.925774427e-02 -3.337376854e-01 4.083304774e-01 0.000000000e+00 0.000000000e+00 0.000000000e+00 0.000000000e+00
1.422400e+09 -6.000318637e-01 1.928646800e-02 -3.345084657e-01 4.089386406e-01 0.000000000e+00 0.000000000e+00 0.000000000e+00 0.000000000e+00
1.425600e+09 -6.000681564e-01 1.931510993e-02 -3.352800294e-01 4.095450643e-01 0.000000000e+00 0.000000000e+00 0.000000000e+00 0.000000000e+00
1.428800e+09 -6.001044858e-01 1.934367003e-02 -3.360523719e-01 4.101497483e-01 0.000000000e+00 0.000000000e+00 0.000000000e+00 0.000000000e+00
1.432000e+09 -6.001408516e-01 1.937214828e-02 -3.368254885e-01 4.107526920e-01 0.000000000e+00 0.000000000e+00 0.000000000e+00 0.000000000e+00
1.435200e+09 -6.001772536e-01 1.940054466e-02 -3.375993745e-01 4.113538953e-01 0.000000000e+00 0.000000000e+00 0.000000000e+00 0.000000000e+00
1.438400e+09 -6.002136915e-01 1.942885917e-02 -3.383740252e-01 4.119533577e-01 0.000000000e+00 0.000000000e+00 0.000000000e+00 0.000000000e+00
1.441600e+09 -6.002501653e-01 1.945709177e-02 -3.391494358e-01 4.125510788e-01 0.000000000e+00 0.000000000e+00 0.000000000e+00 0.000000000e+00
1.444800e+09 -6.002866746e-01 1.948524246e-02 -3.399256016e-01 4.131470584e-01 0.000000000e+00 0.000000000e+00 0.000000000e+00 0.000000000e+00
1.448000e+09 -6.003232192e-01 1.951331123e-02 -3.407025181e-01 4.137412961e-01 0.000000000e+00 0.000000000e+00 0.000000000e+00 0.000000000e+00
1.451200e+09 -6.003597989e-01 1.954129805e-02 -3.414801804e-01 4.143337918e-01 0.000000000e+00 0.000000000e+00 0.000000000e+00 0.000000000e+00
1.454400e+09 -6.003964135e-01 1.956920292e-02 -3.422585840e-01 4.149245449e-01 0.000000000e+00 0.000000000e+00 0.000000000e+00 0.000000000e+00
1.457600e+09 -6.004330627e-01 1.959702583e-02 -3.430377241e-01 4.155135554e-01 0.000000000e+00 0.000000000e+00 0.000000000e+00 0.000000000e+00
1.460800e+09 -6.004697464e-01 1.962476675e-02 -3.438175960e-01 4.161008230e-01 0.000000000e+00 0.000000000e+00 0.000000000e+00 0.000000000e+00
1.464000e+09 -6.005064643e-01 1.965242569e-02 -3.445981951e-01 4.166863473e-01 0.000000000e+00 0.000000000e+00 0.000000000e+00 0.000000000e+00
1.467200e+09 -6.005432162e-01 1.968000262e-02 -3.453795167e-01 4.172701283e-01 0.000000000e+00 0.000000000e+00 0.000000000e+00 0.000000000e+00
1.470400e+09 -6.005800019e-01 1.970749755e-02 -3.461615562e-01 4.178521657e-01 0.000000000e+00 0.000000000e+00 0.000000000e+00 0.000000000e+00
1.473600e+09 -6.006168212e-01 1.973491045e-02 -3.469443089e-01 4.184324593e-01 0.000000000e+00 0.000000000e+00 0.000000000e+00 0.000000000e+00
1.476800e+09 -6.006536738e-01 1.976224133e-02 -3.477277702e-01 4.190110089e-01 0.000000000e+00 0.000000000e+00 0.000000000e+00 0.000000000e+00
1.480000e+09 -6.006905596e-01 1.978949017e-02 -3.485119354e-01 4.195878143e-01 0.000000000e+00 0.000000000e+00 0.000000000e+00 0.000000000e+00
1.483200e+09 -6.007274782e-01 1.981665696e-02 -3.492967999e-01 4.201628755e-01 0.000000000e+00 0.000000000e+00 0.000000000e+00 0.000000000e+00
1.486400e+09 -6.007644296e-01 1.984374171e-02 -3.500823590e-01 4.207361923e-01 0.000000000e+00 0.000000000e+00 0.000000000e+00 0.000000000e+00
1.489600e+09 -6.008014134e-01 1.987074441e-02 -3.508686082e-01 4.213077645e-01 0.000000000e+00 0.000000000e+00 0.000000000e+00 0.000000000e+00
1.492800e+09 -6.008384295e-01 1.989766504e-02 -3.516555427e-01 4.218775920e-01 0.000000000e+00 0.000000000e+00 0.000000000e+00 0.000000000e+00
1.496000e+09 -6.008754776e-01 1.992450361e-02 -3.524431581e-01 4.224456748e-01 0.000000000e+00 0.000000000e+00 0.000000000e+00 0.000000000e+00
1.499200e+09 -6.009125576e-01 1.995126010e-02 -3.532314496e-01 4.230120127e-01 0.000000000e+00 0.000000000e+00 0.000000000e+00 0.000000000e+00
1.502400e+09 -6.009496691e-01 1.997793453e-02 -3.540204127e-01 4.235766058e-01 0.000000000e+00 0.000000000e+00 0.000000000e+00 0.000000000e+00
1.505600e+09 -6.009868121e-01 2.000452688e-02 -3.548100428e-01 4.241394539e-01 0.000000000e+00 0.000000000e+00 0.000000000e+00 0.000000000e+00
1.508800e+09 -6.010239862e-01 2.003103716e-02 -3.556003353e-01 4.247005570e-01 0.000000000e+00 0.000000000e+00 0.000000000e+00 0.000000000e+00
1.512000e+09 -6.010611913e-01 2.005746535e-02 -3.563912855e-01 4.252599151e-01 0.000000000e+00 0.000000000e+00 0.000000000e+00 0.000000000e+00
1.515200e+09 -6.010984271e-01 2.008381147e-02 -3.571828890e-01 4.258175282e-01 0.000000000e+00 0.000000000e+00 0.000000000e+00 0.000000000e+00
1.518400e+09 -6.011356934e-01 2.011007551e-02 -3.579751411e-01 4.263733963e-01 0.000000000e+00 0.000000000e+00 0.000000000e+00 0.000000000e+00
1.521600e+09 -6.011729901e-01 2.013625747e-02 -3.587680372e-01 4.269275193e-01 0.000000000e+00 0.000000000e+00 0.000000000e+00 0.000000000e+00
1.524800e+09 -6.012103169e-01 2.016235736e-02 -3.595615729e-01 4.274798974e-01 0.000000000e+00 0.000000000e+00 0.000000000e+00 0.000000000e+00
1.528000e+09 -6.012476735e-01 2.018837517e-02 -3.603557435e-01 4.280305305e-01 0.000000000e+00 0.000000000e+00 0.000000000e+00 0.000000000e+00
1.531200e+09 -6.012850598e-01 2.021431091e-02 -3.611505444e-01 4.285794187e-01 0.000000000e+00 0.000000000e+00 0.000000000e+00 0.000000000e+00
1.534400e+09 -6.013224756e-01 2.024016458e-02 -3.619459713e-01 4.291265622e-01 0.000000000e+00 0.000000000e+00 0.000000000e+00 0.000000000e+00
1.537600e+09 -6.013599206e-01 2.026593618e-02 -3.627420194e-01 4.296719609e-01 0.000000000e+00 0.000000000e+00 0.000000000e+00 0.000000000e+00
1.540800e+09 -6.013973947e-01 2.029162573e-02 -3.635386842e-01 4.302156149e-01 0.000000000e+00 0.000000000e+00 0.000000000e+00 0.000000000e+00
1.544000e+09 -6.014348976e-01 2.031723322e-02 -3.643359613e-01 4.307575245e-01 0.000000000e+00 0.000000000e+00 0.000000000e+00 0.000000000e+00
1.547200e+09 -6.014724290e-01 2.034275865e-02 -3.651338461e-01 4.312976896e-01 0.000000000e+00 0.000000000e+00 0.000000000e+00 0.000000000e+00
1.550400e+09 -6.015099889e-01 2.036820205e-02 -3.659323341e-01 4.318361105e-01 0.000000000e+00 0.000000000e+00 0.000000000e+00 0.000000000e+00
1.553600e+09 -6.015475769e-01 2.039356341e-02 -3.667314208e-01 4.323727873e-01 0.000000000e+00 0.000000000e+00 0.000000000e+00 0.000000000e+00
1.556800e+09 -6.015851929e-01 2.041884274e-02 -3.675311017e-01 4.329077201e-01 0.000000000e+00 0.000000000e+00 0.000000000e+00 0.000000000e+00
1.560000e+09 -6.016228367e-01 2.044404004e-02 -3.683313722e-01 4.334409092e-01 0.000000000e+00 0.000000000e+00 0.000000000e+00 0.000000000e+00
1.563200e+09 -6.016605080e-01 2.046915534e-02 -3.691322279e-01 4.339723547e-01 0.000000000e+00 0.000000000e+00 0.000000000e+00 0.000000000e+00
1.566400e+09 -6.016982066e-01 2.049418863e-02 -3.699336643e-01 4.345020568e-01 0.000000000e+00 0.000000000e+00 0.000000000e+00 0.000000000e+00
1.569600e+09 -6.017359324e-01 2.051913993e-02 -3.707356769e-01 4.350300157e-01 0.000000000e+00 0.000000000e+00 0.000000000e+00 0.000000000e+00
1.572800e+09 -6.017736851e-01 2.054400925e-02 -3.715382613e-01 4.355562317e-01 0.000000000e+00 0.000000000e+00 0.000000000e+00 0.000000000e+00
1.576000e+09 -6.018114644e-01 2.056879660e-02 -3.723414129e-01 4.360807049e-01 0.000000000e+00 0.000000000e+00 0.000000000e+00 0.000000000e+00
1.579200e+09 -6.018492703e-01 2.059350199e-02 -3.731451274e-01 4.366034358e-01 0.000000000e+00 0.000000000e+00 0.000000000e+00 0.000000000e+00
1.582400e+09 -6.018871025e-01 2.061812543e-02 -3.739494002e-01 4.371244244e-01 0.000000000e+00 0.000000000e+00 0.000000000e+00 0.000000000e+00
1.585600e+09 -6.019249607e-01 2.064266694e-02 -3.747542270e-01 4.376436712e-01 0.000000000e+00 0.000000000e+00 0.000000000e+00 0.000000000e+00
1.588800e+09 -6.019628448e-01 2.066712653e-02 -3.755596032e-01 4.381611763e-01 0.000000000e+00 0.000000000e+00 0.000000000e+00 0.000000000e+00
1.592000e+09 -6.020007545e-01 2.069150421e-02 -3.763655244e-01 4.386769401e-01 0.000000000e+00 0.000000000e+00 0.000000000e+00 0.000000000e+00
1.595200e+09 -6.020386897e-01 2.071580000e-02 -3.771719863e-01 4.391909630e-01 0.000000000e+00 0.000000000e+00 0.000000000e+00 0.000000000e+00
1.598400e+09 -6.020766501e-01 2.074001392e-02 -3.779789844e-01 4.397032451e-01 0.000000000e+00 0.000000000e+00 0.000000000e+00 0.000000000e+00
1.601600e+09 -6.021146356e-01 2.076414597e-02 -3.787865142e-01 4.402137870e-01 0.000000000e+00 0.000000000e+00 0.000000000e+00 0.000000000e+00
1.604800e+09 -6.021526459e-01 2.078819618e-02 -3.795945714e-01 4.407225889e-01 0.000000000e+00 0.000000000e+00 0.000000000e+00 0.000000000e+00
1.608000e+09 -6.021906808e-01 2.081216457e-02 -3.804031516e-01 4.412296512e-01 0.000000000e+00 0.000000000e+00 0.000000000e+00 0.000000000e+00
1.611200e+09 -6.022287401e-01 2.083605115e-02 -3.812122504e-01 4.417349743e-01 0.000000000e+00 0.000000000e+00 0.000000000e+00 0.000000000e+00
1.614400e+09 -6.022668237e-01 2.085985594e-02 -3.820218633e-01 4.422385585e-01 0.000000000e+00 0.000000000e+00 0.000000000e+00 0.000000000e+00
1.617600e+09 -6.023049312e-01 2.088357896e-02 -3.828319861e-01 4.427404043e-01 0.000000000e+00 0.000000000e+00 0.000000000e+00 0.000000000e+00
1.620800e+09 -6.023430625e-01 2.090722022e-02 -3.836426143e-01 4.432405121e-01 0.000000000e+00 0.000000000e+00 0.000000000e+00 0.000000000e+00
1.624000e+09 -6.023812174e-01 2.093077976e-02 -3.844537436e-01 4.437388824e-01 0.000000000e+00 0.000000000e+00 0.000000000e+00 0.000000000e+00
1.627200e+09 -6.024193957e-01 2.095425758e-02 -3.852653696e-01 4.442355155e-01 0.000000000e+00 0.000000000e+00 0.000000000e+00 0.000000000e+00
1.630400e+09 -6.024575972e-01 2.097765372e-02 -3.860774879e-01 4.447304119e-01 0.000000000e+00 0.000000000e+00 0.000000000e+00 0.000000000e+00
1.633600e+09 -6.024958216e-01 2.100096818e-02 -3.868900943e-01 4.452235721e-01 0.000000000e+00 0.000000000e+00 0.000000000e+00 0.000000000e+00
1.636800e+09 -6.025340688e-01 2.102420100e-02 -3.877031843e-01 4.457149965e-01 0.000000000e+00 0.000000000e+00 0.000000000e+00 0.000000000e+00
1.640000e+09 -6.025723386e-01 2.104735220e-02 -3.885167537e-01 4.462046857e-01 0.000000000e+00 0.000000000e+00 0.000000000e+00 0.000000000e+00
1.643200e+09 -6.026106307e-01 2.107042180e-02 -3.893307981e-01 4.466926401e-01 0.000000000e+00 0.000000000e+00 0.000000000e+00 0.000000000e+00
1.646400e+09 -6.026489450e-01 2.109340982e-02 -3.901453133e-01 4.471788603e-01 0.000000000e+00 0.000000000e+00 0.000000000e+00 0.000000000e+00
1.649600e+09 -6.026872813e-01 2.111631629e-02 -3.909602948e-01 4.476633467e-01 0.000000000e+00 0.000000000e+00 0.000000000e+00 0.000000000e+00
1.652800e+09 -6.027256393e-01 2.113914124e-02 -3.917757384e-01 4.481461000e-01 0.000000000e+00 0.000000000e+00 0.000000000e+00 0.000000000e+00
1.656000e+09 -6.027640189e-01 2.116188469e-02 -3.925916398e-01 4.486271206e-01 0.000000000e+00 0.000000000e+00 0.000000000e+00 0.000000000e+00
1.659200e+09 -6.028024198e-01 2.118454666e-02 -3.934079948e-01 4.491064092e-01 0.000000000e+00 0.000000000e+00 0.000000000e+00 0.000000000e+00
1.662400e+09 -6.028408419e-01 2.120712719e-02 -3.942247989e-01 4.495839662e-01 0.000000000e+00 0.000000000e+00 0.000000000e+00 0.000000000e+00
1.665600e+09 -6.028792849e-01 2.122962629e-02 -3.950420481e-01 4.500597923e-01 0.000000000e+00 0.000000000e+00 0.000000000e+00 0.000000000e+00
1.668800e+09 -6.029177487e-01 2.125204401e-02 -3.958597379e-01 4.505338881e-01 0.000000000e+00 0.000000000e+00 0.000000000e+00 0.000000000e+00
1.672000e+09 -6.029562330e-01 2.127438036e-02 -3.966778642e-01 4.510062542e-01 0.000000000e+00 0.000000000e+00 0.000000000e+00 0.000000000e+00
1.675200e+09 -6.029947376e-01 2.129663538e-02 -3.974964226e-01 4.514768911e-01 0.000000000e+00 0.000000000e+00 0.000000000e+00 0.000000000e+00
1.678400e+09 -6.030332624e-01 2.131880909e-02 -3.983154091e-01 4.519457996e-01 0.000000000e+00 0.000000000e+00 0.000000000e+00 0.000000000e+00
1.681600e+09 -6.030718072e-01 2.134090152e-02 -3.991348192e-01 4.524129802e-01 0.000000000e+00 0.000000000e+00 0.000000000e+00 0.000000000e+00
1.684800e+09 -6.031103717e-01 2.136291272e-02 -3.999546488e-01 4.528784336e-01 0.000000000e+00 0.000000000e+00 0.000000000e+00 0.000000000e+00
1.688000e+09 -6.031489558e-01 2.138484269e-02 -4.007748937e-01 4.533421605e-01 0.000000000e+00 0.000000000e+00 0.000000000e+00 0.000000000e+00
1.691200e+09 -6.031875592e-01 2.140669149e-02 -4.015955496e-01 4.538041616e-01 0.000000000e+00 0.000000000e+00 0.000000000e+00 0.000000000e+00
1.694400e+09 -6.032261818e-01 2.142845914e-02 -4.024166123e-01 4.542644375e-01 0.000000000e+00 0.000000000e+00 0.000000000e+00 0.000000000e+00
1.697600e+09 -6.032648233e-01 2.145014566e-02 -4.032380778e-01 4.547229889e-01 0.000000000e+00 0.000000000e+00 0.000000000e+00 0.000000000e+00
1.700800e+09 -6.033034836e-01 2.147175111e-02 -4.040599416e-01 4.551798165e-01 0.000000000e+00 0.000000000e+00 0.000000000e+00 0.000000000e+00
1.704000e+09 -6.033421625e-01 2.149327550e-02 -4.048821998e-01 4.556349211e-01 0.000000000e+00 0.000000000e+00 0.000000000e+00 0.000000000e+00
1.707200e+09 -6.033808597e-01 2.151471888e-02 -4.057048481e-01 4.560883033e-01 0.000000000e+00 0.000000000e+00 0.000000000e+00 0.000000000e+00
1.710400e+09 -6.034195751e-01 2.153608128e-02 -4.065278823e-01 4.565399640e-01 0.000000000e+00 0.000000000e+00 0.000000000e+00 0.000000000e+00
1.713600e+09 -6.034583085e-01 2.155736273e-02 -4.073512982e-01 4.569899038e-01 0.000000000e+00 0.000000000e+00 0.000000000e+00 0.000000000e+00
1.716800e+09 -6.034970596e-01 2.157856327e-02 -4.081750918e-01 4.574381236e-01 0.000000000e+00 0.000000000e+00 0.000000000e+00 0.000000000e+00
1.720000e+09 -6.035358284e-01 2.159968293e-02 -4.089992589e-01 4.578846241e-01 0.000000000e+00 0.000000000e+00 0.000000000e+00 0.000000000e+00
1.723200e+09 -6.035746145e-01 2.162072176e-02 -4.098237954e-01 4.583294060e-01 0.000000000e+00 0.000000000e+00 0.000000000e+00 0.000000000e+00
1.726400e+09 -6.036134178e-01 2.164167979e-02 -4.106486971e-01 4.587724703e-01 0.000000000e+00 0.000000000e+00 0.000000000e+00 0.000000000e+00
1.729600e+09 -6.036522382e-01 2.166255705e-02 -4.114739598e-01 4.592138176e-01 0.000000000e+00 0.000000000e+00 0.000000000e+00 0.000000000e+00
1.732800e+09 -6.036910753e-01 2.168335359e-02 -4.122995796e-01 4.596534488e-01 0.000000000e+00 0.000000000e+00 0.000000000e+00 0.000000000e+00
1.736000e+09 -6.037299291e-01 2.170406945e-02 -4.131255523e-01 4.600913648e-01 0.000000000e+00 0.000000000e+00 0.000000000e+00 0.000000000e+00
1.739200e+09 -6.037687993e-01 2.172470466e-02 -4.139518737e-01 4.605275663e-01 0.000000000e+00 0.000000000e+00 0.000000000e+00 0.000000000e+00
1.742400e+09 -6.038076857e-01 2.174525926e-02 -4.147785399e-01 4.609620542e-01 0.000000000e+00 0.000000000e+00 0.000000000e+00 0.000000000e+00
1.745600e+09 -6.038465882e-01 2.176573329e-02 -4.156055467e-01 4.613948294e-01 0.000000000e+00 0.000000000e+00 0.000000000e+00 0.000000000e+00
1.748800e+09 -6.038855065e-01 2.178612680e-02 -4.164328900e-01 4.618258927e-01 0.000000000e+00 0.000000000e+00 0.000000000e+00 0.000000000e+00
1.752000e+09 -6.039244405e-01 2.180643983e-02 -4.172605659e-01 4.622552450e-01 0.000000000e+00 0.000000000e+00 0.000000000e+00 0.000000000e+00
1.755200e+09 -6.039633900e-01 2.182667241e-02 -4.180885702e-01 4.626828872e-01 0.000000000e+00 0.000000000e+00 0.000000000e+00 0.000000000e+00
1.758400e+09 -6.040023547e-01 2.184682459e-02 -4.189168988e-01 4.631088202e-01 0.000000000e+00 0.000000000e+00 0.000000000e+00 0.000000000e+00
1.761600e+09 -6.040413345e-01 2.186689642e-02 -4.197455479e-01 4.635330449e-01 0.000000000e+00 0.000000000e+00 0.000000000e+00 0.000000000e+00
1.764800e+09 -6.040803292e-01 2.188688792e-02 -4.205745132e-01 4.639555623e-01 0.000000000e+00 0.000000000e+00 0.000000000e+00 0.000000000e+00
1.768000e+09 -6.041193386e-01 2.190679916e-02 -4.214037909e-01 4.643763731e-01 0.000000000e+00 0.000000000e+00 0.000000000e+00 0.000000000e+00
1.771200e+09 -6.041583626e-01 2.192663017e-02 -4.222333768e-01 4.647954785e-01 0.000000000e+00 0.000000000e+00 0.000000000e+00 0.000000000e+00
1.774400e+09 -6.041974008e-01 2.194638100e-02 -4.230632671e-01 4.652128793e-01 0.000000000e+00 0.000000000e+00 0.000000000e+00 0.000000000e+00
1.777600e+09 -6.042364533e-01 2.196605169e-02 -4.238934576e-01 4.656285765e-01 0.000000000e+00 0.000000000e+00 0.000000000e+00 0.000000000e+00
1.780800e+09 -6.042755196e-01 2.198564229e-02 -4.247239444e-01 4.660425711e-01 0.000000000e+00 0.000000000e+00 0.000000000e+00 0.000000000e+00
1.784000e+09 -6.043145998e-01 2.200515284e-02 -4.255547235e-01 4.664548640e-01 0.000000000e+00 0.000000000e+00 0.000000000e+00 0.000000000e+00
1.787200e+09 -6.043536935e-01 2.202458339e-02 -4.263857910e-01 4.668654563e-01 0.000000000e+00 0.000000000e+00 0.000000000e+00 0.000000000e+00
1.790400e+09 -6.043928006e-01 2.204393399e-02 -4.272171428e-01 4.672743489e-01 0.000000000e+00 0.000000000e+00 0.000000000e+00 0.000000000e+00
1.793600e+09 -6.044319209e-01 2.206320468e-02 -4.280487751e-01 4.676815428e-01 0.000000000e+00 0.000000000e+00 0.000000000e+00 0.000000000e+00
1.796800e+09 -6.044710543e-01 2.208239551e-02 -4.288806839e-01 4.680870391e-01 0.000000000e+00 0.000000000e+00 0.000000000e+00 0.000000000e+00
1.800000e+09 -6.045102005e-01 2.210150654e-02 -4.297128651e-01 4.684908388e-01 0.000000000e+00 0.000000000e+00 0.000000000e+00 0.000000000e+00
