! rfsim (KiCad + openEMS)
# HZ S RI R 50
5.000000e+08 -1.750386747e+00 -2.336431564e-02 -4.278637872e-01 -1.758438265e-02 0.000000000e+00 0.000000000e+00 0.000000000e+00 0.000000000e+00
5.100000e+08 -1.750296625e+00 -2.382413964e-02 -4.277954797e-01 -1.793038414e-02 0.000000000e+00 0.000000000e+00 0.000000000e+00 0.000000000e+00
5.200000e+08 -1.750204766e+00 -2.428352419e-02 -4.277258557e-01 -1.827605080e-02 0.000000000e+00 0.000000000e+00 0.000000000e+00 0.000000000e+00
5.300000e+08 -1.750111172e+00 -2.474246103e-02 -4.276549174e-01 -1.862137633e-02 0.000000000e+00 0.000000000e+00 0.000000000e+00 0.000000000e+00
5.400000e+08 -1.750015846e+00 -2.520094194e-02 -4.275826669e-01 -1.896635449e-02 0.000000000e+00 0.000000000e+00 0.000000000e+00 0.000000000e+00
5.500000e+08 -1.749918791e+00 -2.565895873e-02 -4.275091064e-01 -1.931097901e-02 0.000000000e+00 0.000000000e+00 0.000000000e+00 0.000000000e+00
5.600000e+08 -1.749820011e+00 -2.611650322e-02 -4.274342382e-01 -1.965524368e-02 0.000000000e+00 0.000000000e+00 0.000000000e+00 0.000000000e+00
5.700000e+08 -1.749719507e+00 -2.657356726e-02 -4.273580644e-01 -1.999914229e-02 0.000000000e+00 0.000000000e+00 0.000000000e+00 0.000000000e+00
5.800000e+08 -1.749617283e+00 -2.703014271e-02 -4.272805874e-01 -2.034266864e-02 0.000000000e+00 0.000000000e+00 0.000000000e+00 0.000000000e+00
5.900000e+08 -1.749513343e+00 -2.748622146e-02 -4.272018095e-01 -2.068581655e-02 0.000000000e+00 0.000000000e+00 0.000000000e+00 0.000000000e+00
6.000000e+08 -1.749407688e+00 -2.794179542e-02 -4.271217330e-01 -2.102857986e-02 0.000000000e+00 0.000000000e+00 0.000000000e+00 0.000000000e+00
6.100000e+08 -1.749300322e+00 -2.839685654e-02 -4.270403604e-01 -2.137095245e-02 0.000000000e+00 0.000000000e+00 0.000000000e+00 0.000000000e+00
6.200000e+08 -1.749191249e+00 -2.885139678e-02 -4.269576941e-01 -2.171292818e-02 0.000000000e+00 0.000000000e+00 0.000000000e+00 0.000000000e+00
6.300000e+08 -1.749080472e+00 -2.930540813e-02 -4.268737365e-01 -2.205450096e-02 0.000000000e+00 0.000000000e+00 0.000000000e+00 0.000000000e+00
6.400000e+08 -1.748967993e+00 -2.975888259e-02 -4.267884902e-01 -2.239566469e-02 0.000000000e+00 0.000000000e+00 0.000000000e+00 0.000000000e+00
6.500000e+08 -1.748853817e+00 -3.021181221e-02 -4.267019578e-01 -2.273641333e-02 0.000000000e+00 0.000000000e+00 0.000000000e+00 0.000000000e+00
6.600000e+08 -1.748737946e+00 -3.066418905e-02 -4.266141418e-01 -2.307674082e-02 0.000000000e+00 0.000000000e+00 0.000000000e+00 0.000000000e+00
6.700000e+08 -1.748620385e+00 -3.111600519e-02 -4.265250448e-01 -2.341664114e-02 0.000000000e+00 0.000000000e+00 0.000000000e+00 0.000000000e+00
6.800000e+08 -1.748501135e+00 -3.156725276e-02 -4.264346695e-01 -2.375610829e-02 0.000000000e+00 0.000000000e+00 0.000000000e+00 0.000000000e+00
6.900000e+08 -1.748380202e+00 -3.201792389e-02 -4.263430185e-01 -2.409513628e-02 0.000000000e+00 0.000000000e+00 0.000000000e+00 0.000000000e+00
7.000000e+08 -1.748257589e+00 -3.246801077e-02 -4.262500947e-01 -2.443371916e-02 0.000000000e+00 0.000000000e+00 0.000000000e+00 0.000000000e+00
7.100000e+08 -1.748133298e+00 -3.291750557e-02 -4.261559008e-01 -2.477185098e-02 0.000000000e+00 0.000000000e+00 0.000000000e+00 0.000000000e+00
7.200000e+08 -1.748007335e+00 -3.336640053e-02 -4.260604395e-01 -2.510952582e-02 0.000000000e+00 0.000000000e+00 0.000000000e+00 0.000000000e+00
7.300000e+08 -1.747879702e+00 -3.381468790e-02 -4.259637137e-01 -2.544673779e-02 0.000000000e+00 0.000000000e+00 0.000000000e+00 0.000000000e+00
7.400000e+08 -1.747750403e+00 -3.426235997e-02 -4.258657262e-01 -2.578348100e-02 0.000000000e+00 0.000000000e+00 0.000000000e+00 0.000000000e+00
7.500000e+08 -1.747619443e+00 -3.470940903e-02 -4.257664801e-01 -2.611974961e-02 0.000000000e+00 0.000000000e+00 0.000000000e+00 0.000000000e+00
7.600000e+08 -1.747486824e+00 -3.515582743e-02 -4.256659781e-01 -2.645553777e-02 0.000000000e+00 0.000000000e+00 0.000000000e+00 0.000000000e+00
7.700000e+08 -1.747352551e+00 -3.560160755e-02 -4.255642233e-01 -2.679083969e-02 0.000000000e+00 0.000000000e+00 0.000000000e+00 0.000000000e+00
7.800000e+08 -1.747216628e+00 -3.604674176e-02 -4.254612187e-01 -2.712564957e-02 0.000000000e+00 0.000000000e+00 0.000000000e+00 0.000000000e+00
7.900000e+08 -1.747079058e+00 -3.649122251e-02 -4.253569672e-01 -2.745996165e-02 0.000000000e+00 0.000000000e+00 0.000000000e+00 0.000000000e+00
8.000000e+08 -1.746939847e+00 -3.693504225e-02 -4.252514721e-01 -2.779377018e-02 0.000000000e+00 0.000000000e+00 0.000000000e+00 0.000000000e+00
8.100000e+08 -1.746798997e+00 -3.737819347e-02 -4.251447363e-01 -2.812706946e-02 0.000000000e+00 0.000000000e+00 0.000000000e+00 0.000000000e+00
8.200000e+08 -1.746656513e+00 -3.782066868e-02 -4.250367630e-01 -2.845985379e-02 0.000000000e+00 0.000000000e+00 0.000000000e+00 0.000000000e+00
8.300000e+08 -1.746512398e+00 -3.826246045e-02 -4.249275554e-01 -2.879211749e-02 0.000000000e+00 0.000000000e+00 0.000000000e+00 0.000000000e+00
8.400000e+08 -1.746366658e+00 -3.870356135e-02 -4.248171167e-01 -2.912385492e-02 0.000000000e+00 0.000000000e+00 0.000000000e+00 0.000000000e+00
8.500000e+08 -1.746219297e+00 -3.914396399e-02 -4.247054500e-01 -2.945506047e-02 0.000000000e+00 0.000000000e+00 0.000000000e+00 0.000000000e+00
8.600000e+08 -1.746070318e+00 -3.958366102e-02 -4.245925588e-01 -2.978572853e-02 0.000000000e+00 0.000000000e+00 0.000000000e+00 0.000000000e+00
8.700000e+08 -1.745919726e+00 -4.002264511e-02 -4.244784462e-01 -3.011585352e-02 0.000000000e+00 0.000000000e+00 0.000000000e+00 0.000000000e+00
8.800000e+08 -1.745767525e+00 -4.046090899e-02 -4.243631156e-01 -3.044542992e-02 0.000000000e+00 0.000000000e+00 0.000000000e+00 0.000000000e+00
8.900000e+08 -1.745613720e+00 -4.089844539e-02 -4.242465704e-01 -3.077445218e-02 0.000000000e+00 0.000000000e+00 0.000000000e+00 0.000000000e+00
9.000000e+08 -1.745458316e+00 -4.133524708e-02 -4.241288139e-01 -3.110291483e-02 0.000000000e+00 0.000000000e+00 0.000000000e+00 0.000000000e+00
9.100000e+08 -1.745301316e+00 -4.177130689e-02 -4.240098496e-01 -3.143081238e-02 0.000000000e+00 0.000000000e+00 0.000000000e+00 0.000000000e+00
9.200000e+08 -1.745142725e+00 -4.220661765e-02 -4.238896810e-01 -3.175813939e-02 0.000000000e+00 0.000000000e+00 0.000000000e+00 0.000000000e+00
9.300000e+08 -1.744982547e+00 -4.264117224e-02 -4.237683114e-01 -3.208489044e-02 0.000000000e+00 0.000000000e+00 0.000000000e+00 0.000000000e+00
9.400000e+08 -1.744820788e+00 -4.307496357e-02 -4.236457444e-01 -3.241106014e-02 0.000000000e+00 0.000000000e+00 0.000000000e+00 0.000000000e+00
9.500000e+08 -1.744657452e+00 -4.350798460e-02 -4.235219836e-01 -3.273664313e-02 0.000000000e+00 0.000000000e+00 0.000000000e+00 0.000000000e+00
9.600000e+08 -1.744492543e+00 -4.394022829e-02 -4.233970325e-01 -3.306163406e-02 0.000000000e+00 0.000000000e+00 0.000000000e+00 0.000000000e+00
9.700000e+08 -1.744326067e+00 -4.437168767e-02 -4.232708948e-01 -3.338602763e-02 0.000000000e+00 0.000000000e+00 0.000000000e+00 0.000000000e+00
9.800000e+08 -1.744158028e+00 -4.480235579e-02 -4.231435740e-01 -3.370981854e-02 0.000000000e+00 0.000000000e+00 0.000000000e+00 0.000000000e+00
9.900000e+08 -1.743988430e+00 -4.523222574e-02 -4.230150738e-01 -3.403300154e-02 0.000000000e+00 0.000000000e+00 0.000000000e+00 0.000000000e+00
1.000000e+09 -1.743817280e+00 -4.566129063e-02 -4.228853980e-01 -3.435557141e-02 0.000000000e+00 0.000000000e+00 0.000000000e+00 0.000000000e+00
1.010000e+09 -1.743644580e+00 -4.608954364e-02 -4.227545502e-01 -3.467752292e-02 0.000000000e+00 0.000000000e+00 0.000000000e+00 0.000000000e+00
1.020000e+09 -1.743470337e+00 -4.651697795e-02 -4.226225341e-01 -3.499885092e-02 0.000000000e+00 0.000000000e+00 0.000000000e+00 0.000000000e+00
1.030000e+09 -1.743294556e+00 -4.694358679e-02 -4.224893536e-01 -3.531955026e-02 0.000000000e+00 0.000000000e+00 0.000000000e+00 0.000000000e+00
1.040000e+09 -1.743117240e+00 -4.736936344e-02 -4.223550125e-01 -3.563961581e-02 0.000000000e+00 0.000000000e+00 0.000000000e+00 0.000000000e+00
1.050000e+09 -1.742938396e+00 -4.779430121e-02 -4.222195145e-01 -3.595904249e-02 0.000000000e+00 0.000000000e+00 0.000000000e+00 0.000000000e+00
1.060000e+09 -1.742758028e+00 -4.821839342e-02 -4.220828636e-01 -3.627782522e-02 0.000000000e+00 0.000000000e+00 0.000000000e+00 0.000000000e+00
1.070000e+09 -1.742576142e+00 -4.864163347e-02 -4.219450636e-01 -3.659595899e-02 0.000000000e+00 0.000000000e+00 0.000000000e+00 0.000000000e+00
1.080000e+09 -1.742392742e+00 -4.906401477e-02 -4.218061184e-01 -3.691343879e-02 0.000000000e+00 0.000000000e+00 0.000000000e+00 0.000000000e+00
1.090000e+09 -1.742207834e+00 -4.948553077e-02 -4.216660320e-01 -3.723025963e-02 0.000000000e+00 0.000000000e+00 0.000000000e+00 0.000000000e+00
1.100000e+09 -1.742021423e+00 -4.990617498e-02 -4.215248083e-01 -3.754641658e-02 0.000000000e+00 0.000000000e+00 0.000000000e+00 0.000000000e+00
1.110000e+09 -1.741833513e+00 -5.032594092e-02 -4.213824513e-01 -3.786190472e-02 0.000000000e+00 0.000000000e+00 0.000000000e+00 0.000000000e+00
1.120000e+09 -1.741644111e+00 -5.074482217e-02 -4.212389651e-01 -3.817671915e-02 0.000000000e+00 0.000000000e+00 0.000000000e+00 0.000000000e+00
1.130000e+09 -1.741453222e+00 -5.116281233e-02 -4.210943536e-01 -3.849085503e-02 0.000000000e+00 0.000000000e+00 0.000000000e+00 0.000000000e+00
1.140000e+09 -1.741260851e+00 -5.157990505e-02 -4.209486210e-01 -3.880430753e-02 0.000000000e+00 0.000000000e+00 0.000000000e+00 0.000000000e+00
1.150000e+09 -1.741067002e+00 -5.199609402e-02 -4.208017713e-01 -3.911707184e-02 0.000000000e+00 0.000000000e+00 0.000000000e+00 0.000000000e+00
1.160000e+09 -1.740871683e+00 -5.241137296e-02 -4.206538086e-01 -3.942914320e-02 0.000000000e+00 0.000000000e+00 0.000000000e+00 0.000000000e+00
1.170000e+09 -1.740674897e+00 -5.282573565e-02 -4.205047371e-01 -3.974051688e-02 0.000000000e+00 0.000000000e+00 0.000000000e+00 0.000000000e+00
1.180000e+09 -1.740476651e+00 -5.323917588e-02 -4.203545610e-01 -4.005118816e-02 0.000000000e+00 0.000000000e+00 0.000000000e+00 0.000000000e+00
1.190000e+09 -1.740276950e+00 -5.365168751e-02 -4.202032843e-01 -4.036115237e-02 0.000000000e+00 0.000000000e+00 0.000000000e+00 0.000000000e+00
1.200000e+09 -1.740075800e+00 -5.406326441e-02 -4.200509115e-01 -4.067040487e-02 0.000000000e+00 0.000000000e+00 0.000000000e+00 0.000000000e+00
1.210000e+09 -1.739873205e+00 -5.447390052e-02 -4.198974466e-01 -4.097894103e-02 0.000000000e+00 0.000000000e+00 0.000000000e+00 0.000000000e+00
1.220000e+09 -1.739669172e+00 -5.488358980e-02 -4.197428939e-01 -4.128675628e-02 0.000000000e+00 0.000000000e+00 0.000000000e+00 0.000000000e+00
1.230000e+09 -1.739463706e+00 -5.529232626e-02 -4.195872578e-01 -4.159384606e-02 0.000000000e+00 0.000000000e+00 0.000000000e+00 0.000000000e+00
1.240000e+09 -1.739256813e+00 -5.570010394e-02 -4.194305425e-01 -4.190020586e-02 0.000000000e+00 0.000000000e+00 0.000000000e+00 0.000000000e+00
1.250000e+09 -1.739048498e+00 -5.610691693e-02 -4.192727523e-01 -4.220583118e-02 0.000000000e+00 0.000000000e+00 0.000000000e+00 0.000000000e+00
1.260000e+09 -1.738838768e+00 -5.651275937e-02 -4.191138916e-01 -4.251071755e-02 0.000000000e+00 0.000000000e+00 0.000000000e+00 0.000000000e+00
1.270000e+09 -1.738627627e+00 -5.691762541e-02 -4.189539647e-01 -4.281486057e-02 0.000000000e+00 0.000000000e+00 0.000000000e+00 0.000000000e+00
1.280000e+09 -1.738415082e+00 -5.732150929e-02 -4.187929762e-01 -4.311825583e-02 0.000000000e+00 0.000000000e+00 0.000000000e+00 0.000000000e+00
1.290000e+09 -1.738201138e+00 -5.772440524e-02 -4.186309302e-01 -4.342089896e-02 0.000000000e+00 0.000000000e+00 0.000000000e+00 0.000000000e+00
1.300000e+09 -1.737985802e+00 -5.812630756e-02 -4.184678314e-01 -4.372278564e-02 0.000000000e+00 0.000000000e+00 0.000000000e+00 0.000000000e+00
1.310000e+09 -1.737769078e+00 -5.852721060e-02 -4.183036841e-01 -4.402391156e-02 0.000000000e+00 0.000000000e+00 0.000000000e+00 0.000000000e+00
1.320000e+09 -1.737550973e+00 -5.892710872e-02 -4.181384929e-01 -4.432427247e-02 0.000000000e+00 0.000000000e+00 0.000000000e+00 0.000000000e+00
1.330000e+09 -1.737331493e+00 -5.932599635e-02 -4.179722621e-01 -4.462386411e-02 0.000000000e+00 0.000000000e+00 0.000000000e+00 0.000000000e+00
1.340000e+09 -1.737110644e+00 -5.972386795e-02 -4.178049964e-01 -4.492268230e-02 0.000000000e+00 0.000000000e+00 0.000000000e+00 0.000000000e+00
1.350000e+09 -1.736888431e+00 -6.012071803e-02 -4.176367003e-01 -4.522072286e-02 0.000000000e+00 0.000000000e+00 0.000000000e+00 0.000000000e+00
1.360000e+09 -1.736664860e+00 -6.051654113e-02 -4.174673782e-01 -4.551798165e-02 0.000000000e+00 0.000000000e+00 0.000000000e+00 0.000000000e+00
1.370000e+09 -1.736439938e+00 -6.091133185e-02 -4.172970349e-01 -4.581445457e-02 0.000000000e+00 0.000000000e+00 0.000000000e+00 0.000000000e+00
1.380000e+09 -1.736213670e+00 -6.130508482e-02 -4.171256748e-01 -4.611013754e-02 0.000000000e+00 0.000000000e+00 0.000000000e+00 0.000000000e+00
1.390000e+09 -1.735986063e+00 -6.169779470e-02 -4.169533026e-01 -4.640502653e-02 0.000000000e+00 0.000000000e+00 0.000000000e+00 0.000000000e+00
1.400000e+09 -1.735757123e+00 -6.208945623e-02 -4.167799229e-01 -4.669911752e-02 0.000000000e+00 0.000000000e+00 0.000000000e+00 0.000000000e+00
1.410000e+09 -1.735526855e+00 -6.248006417e-02 -4.166055404e-01 -4.699240656e-02 0.000000000e+00 0.000000000e+00 0.000000000e+00 0.000000000e+00
1.420000e+09 -1.735295266e+00 -6.286961331e-02 -4.164301597e-01 -4.728488968e-02 0.000000000e+00 0.000000000e+00 0.000000000e+00 0.000000000e+00
1.430000e+09 -1.735062361e+00 -6.325809850e-02 -4.162537856e-01 -4.757656300e-02 0.000000000e+00 0.000000000e+00 0.000000000e+00 0.000000000e+00
1.440000e+09 -1.734828148e+00 -6.364551464e-02 -4.160764226e-01 -4.786742262e-02 0.000000000e+00 0.000000000e+00 0.000000000e+00 0.000000000e+00
1.450000e+09 -1.734592631e+00 -6.403185667e-02 -4.158980755e-01 -4.815746472e-02 0.000000000e+00 0.000000000e+00 0.000000000e+00 0.000000000e+00
1.460000e+09 -1.734355819e+00 -6.441711955e-02 -4.157187491e-01 -4.844668548e-02 0.000000000e+00 0.000000000e+00 0.000000000e+00 0.000000000e+00
1.470000e+09 -1.734117715e+00 -6.480129831e-02 -4.155384480e-01 -4.873508113e-02 0.000000000e+00 0.000000000e+00 0.000000000e+00 0.000000000e+00
1.480000e+09 -1.733878327e+00 -6.518438802e-02 -4.153571771e-01 -4.902264792e-02 0.000000000e+00 0.000000000e+00 0.000000000e+00 0.000000000e+00
1.490000e+09 -1.733637662e+00 -6.556638378e-02 -4.151749412e-01 -4.930938216e-02 0.000000000e+00 0.000000000e+00 0.000000000e+00 0.000000000e+00
1.500000e+09 -1.733395724e+00 -6.594728074e-02 -4.149917449e-01 -4.959528017e-02 0.000000000e+00 0.000000000e+00 0.000000000e+00 0.000000000e+00
1.510000e+09 -1.733152522e+00 -6.632707411e-02 -4.148075932e-01 -4.988033830e-02 0.000000000e+00 0.000000000e+00 0.000000000e+00 0.000000000e+00
1.520000e+09 -1.732908060e+00 -6.670575913e-02 -4.146224909e-01 -5.016455295e-02 0.000000000e+00 0.000000000e+00 0.000000000e+00 0.000000000e+00
1.530000e+09 -1.732662345e+00 -6.708333107e-02 -4.144364428e-01 -5.044792055e-02 0.000000000e+00 0.000000000e+00 0.000000000e+00 0.000000000e+00
1.540000e+09 -1.732415384e+00 -6.745978527e-02 -4.142494537e-01 -5.073043756e-02 0.000000000e+00 0.000000000e+00 0.000000000e+00 0.000000000e+00
1.550000e+09 -1.732167183e+00 -6.783511709e-02 -4.140615285e-01 -5.101210048e-02 0.000000000e+00 0.000000000e+00 0.000000000e+00 0.000000000e+00
1.560000e+09 -1.731917748e+00 -6.820932197e-02 -4.138726722e-01 -5.129290583e-02 0.000000000e+00 0.000000000e+00 0.000000000e+00 0.000000000e+00
1.570000e+09 -1.731667086e+00 -6.858239535e-02 -4.136828895e-01 -5.157285017e-02 0.000000000e+00 0.000000000e+00 0.000000000e+00 0.000000000e+00
1.580000e+09 -1.731415203e+00 -6.895433274e-02 -4.134921854e-01 -5.185193011e-02 0.000000000e+00 0.000000000e+00 0.000000000e+00 0.000000000e+00
1.590000e+09 -1.731162105e+00 -6.932512970e-02 -4.133005649e-01 -5.213014227e-02 0.000000000e+00 0.000000000e+00 0.000000000e+00 0.000000000e+00
1.600000e+09 -1.730907800e+00 -6.969478181e-02 -4.131080328e-01 -5.240748332e-02 0.000000000e+00 0.000000000e+00 0.000000000e+00 0.000000000e+00
1.610000e+09 -1.730652293e+00 -7.006328472e-02 -4.129145941e-01 -5.268394995e-02 0.000000000e+00 0.000000000e+00 0.000000000e+00 0.000000000e+00
1.620000e+09 -1.730395591e+00 -7.043063411e-02 -4.127202537e-01 -5.295953891e-02 0.000000000e+00 0.000000000e+00 0.000000000e+00 0.000000000e+00
1.630000e+09 -1.730137700e+00 -7.079682570e-02 -4.125250167e-01 -5.323424695e-02 0.000000000e+00 0.000000000e+00 0.000000000e+00 0.000000000e+00
1.640000e+09 -1.729878628e+00 -7.116185527e-02 -4.123288880e-01 -5.350807089e-02 0.000000000e+00 0.000000000e+00 0.000000000e+00 0.000000000e+00
1.650000e+09 -1.729618380e+00 -7.152571863e-02 -4.121318726e-01 -5.378100754e-02 0.000000000e+00 0.000000000e+00 0.000000000e+00 0.000000000e+00
1.660000e+09 -1.729356963e+00 -7.188841165e-02 -4.119339756e-01 -5.405305379e-02 0.000000000e+00 0.000000000e+00 0.000000000e+00 0.000000000e+00
1.670000e+09 -1.729094384e+00 -7.224993023e-02 -4.117352018e-01 -5.432420654e-02 0.000000000e+00 0.000000000e+00 0.000000000e+00 0.000000000e+00
1.680000e+09 -1.728830649e+00 -7.261027033e-02 -4.115355564e-01 -5.459446272e-02 0.000000000e+00 0.000000000e+00 0.000000000e+00 0.000000000e+00
1.690000e+09 -1.728565765e+00 -7.296942793e-02 -4.113350443e-01 -5.486381931e-02 0.000000000e+00 0.000000000e+00 0.000000000e+00 0.000000000e+00
1.700000e+09 -1.728299738e+00 -7.332739907e-02 -4.111336707e-01 -5.513227332e-02 0.000000000e+00 0.000000000e+00 0.000000000e+00 0.000000000e+00
1.710000e+09 -1.728032575e+00 -7.368417985e-02 -4.109314406e-01 -5.539982178e-02 0.000000000e+00 0.000000000e+00 0.000000000e+00 0.000000000e+00
1.720000e+09 -1.727764283e+00 -7.403976638e-02 -4.107283590e-01 -5.566646177e-02 0.000000000e+00 0.000000000e+00 0.000000000e+00 0.000000000e+00
1.730000e+09 -1.727494868e+00 -7.439415485e-02 -4.105244310e-01 -5.593219039e-02 0.000000000e+00 0.000000000e+00 0.000000000e+00 0.000000000e+00
1.740000e+09 -1.727224337e+00 -7.474734147e-02 -4.103196617e-01 -5.619700480e-02 0.000000000e+00 0.000000000e+00 0.000000000e+00 0.000000000e+00
1.750000e+09 -1.726952697e+00 -7.509932250e-02 -4.101140562e-01 -5.646090217e-02 0.000000000e+00 0.000000000e+00 0.000000000e+00 0.000000000e+00
1.760000e+09 -1.726679954e+00 -7.545009426e-02 -4.099076196e-01 -5.672387971e-02 0.000000000e+00 0.000000000e+00 0.000000000e+00 0.000000000e+00
1.770000e+09 -1.726406115e+00 -7.579965309e-02 -4.097003570e-01 -5.698593467e-02 0.000000000e+00 0.000000000e+00 0.000000000e+00 0.000000000e+00
1.780000e+09 -1.726131186e+00 -7.614799539e-02 -4.094922735e-01 -5.724706433e-02 0.000000000e+00 0.000000000e+00 0.000000000e+00 0.000000000e+00
1.790000e+09 -1.725855175e+00 -7.649511760e-02 -4.092833743e-01 -5.750726599e-02 0.000000000e+00 0.000000000e+00 0.000000000e+00 0.000000000e+00
1.800000e+09 -1.725578088e+00 -7.684101620e-02 -4.090736644e-01 -5.776653702e-02 0.000000000e+00 0.000000000e+00 0.000000000e+00 0.000000000e+00
1.810000e+09 -1.725299932e+00 -7.718568774e-02 -4.088631490e-01 -5.802487479e-02 0.000000000e+00 0.000000000e+00 0.000000000e+00 0.000000000e+00
1.820000e+09 -1.725020713e+00 -7.752912878e-02 -4.086518332e-01 -5.828227672e-02 0.000000000e+00 0.000000000e+00 0.000000000e+00 0.000000000e+00
1.830000e+09 -1.724740438e+00 -7.787133594e-02 -4.084397223e-01 -5.853874027e-02 0.000000000e+00 0.000000000e+00 0.000000000e+00 0.000000000e+00
1.840000e+09 -1.724459115e+00 -7.821230589e-02 -4.082268213e-01 -5.879426291e-02 0.000000000e+00 0.000000000e+00 0.000000000e+00 0.000000000e+00
1.850000e+09 -1.724176749e+00 -7.855203533e-02 -4.080131354e-01 -5.904884216e-02 0.000000000e+00 0.000000000e+00 0.000000000e+00 0.000000000e+00
1.860000e+09 -1.723893348e+00 -7.889052102e-02 -4.077986698e-01 -5.930247558e-02 0.000000000e+00 0.000000000e+00 0.000000000e+00 0.000000000e+00
1.870000e+09 -1.723608918e+00 -7.922775975e-02 -4.075834297e-01 -5.955516076e-02 0.000000000e+00 0.000000000e+00 0.000000000e+00 0.000000000e+00
1.880000e+09 -1.723323466e+00 -7.956374837e-02 -4.073674202e-01 -5.980689532e-02 0.000000000e+00 0.000000000e+00 0.000000000e+00 0.000000000e+00
1.890000e+09 -1.723036999e+00 -7.989848376e-02 -4.071506465e-01 -6.005767690e-02 0.000000000e+00 0.000000000e+00 0.000000000e+00 0.000000000e+00
1.900000e+09 -1.722749524e+00 -8.023196286e-02 -4.069331138e-01 -6.030750321e-02 0.000000000e+00 0.000000000e+00 0.000000000e+00 0.000000000e+00
1.910000e+09 -1.722461047e+00 -8.056418263e-02 -4.067148273e-01 -6.055637197e-02 0.000000000e+00 0.000000000e+00 0.000000000e+00 0.000000000e+00
1.920000e+09 -1.722171575e+00 -8.089514009e-02 -4.064957922e-01 -6.080428092e-02 0.000000000e+00 0.000000000e+00 0.000000000e+00 0.000000000e+00
1.930000e+09 -1.721881115e+00 -8.122483232e-02 -4.062760137e-01 -6.105122786e-02 0.000000000e+00 0.000000000e+00 0.000000000e+00 0.000000000e+00
1.940000e+09 -1.721589675e+00 -8.155325640e-02 -4.060554970e-01 -6.129721062e-02 0.000000000e+00 0.000000000e+00 0.000000000e+00 0.000000000e+00
1.950000e+09 -1.721297260e+00 -8.188040950e-02 -4.058342473e-01 -6.154222706e-02 0.000000000e+00 0.000000000e+00 0.000000000e+00 0.000000000e+00
1.960000e+09 -1.721003877e+00 -8.220628881e-02 -4.056122699e-01 -6.178627506e-02 0.000000000e+00 0.000000000e+00 0.000000000e+00 0.000000000e+00
1.970000e+09 -1.720709534e+00 -8.253089156e-02 -4.053895698e-01 -6.202935254e-02 0.000000000e+00 0.000000000e+00 0.000000000e+00 0.000000000e+00
1.980000e+09 -1.720414237e+00 -8.285421504e-02 -4.051661525e-01 -6.227145748e-02 0.000000000e+00 0.000000000e+00 0.000000000e+00 0.000000000e+00
1.990000e+09 -1.720117993e+00 -8.317625657e-02 -4.049420230e-01 -6.251258786e-02 0.000000000e+00 0.000000000e+00 0.000000000e+00 0.000000000e+00
2.000000e+09 -1.719820809e+00 -8.349701352e-02 -4.047171865e-01 -6.275274170e-02 0.000000000e+00 0.000000000e+00 0.000000000e+00 0.000000000e+00
2.010000e+09 -1.719522691e+00 -8.381648331e-02 -4.044916484e-01 -6.299191707e-02 0.000000000e+00 0.000000000e+00 0.000000000e+00 0.000000000e+00
2.020000e+09 -1.719223647e+00 -8.413466339e-02 -4.042654139e-01 -6.323011205e-02 0.000000000e+00 0.000000000e+00 0.000000000e+00 0.000000000e+00
2.030000e+09 -1.718923684e+00 -8.445155125e-02 -4.040384881e-01 -6.346732478e-02 0.000000000e+00 0.000000000e+00 0.000000000e+00 0.000000000e+00
2.040000e+09 -1.718622807e+00 -8.476714445e-02 -4.038108763e-01 -6.370355341e-02 0.000000000e+00 0.000000000e+00 0.000000000e+00 0.000000000e+00
2.050000e+09 -1.718321025e+00 -8.508144057e-02 -4.035825838e-01 -6.393879613e-02 0.000000000e+00 0.000000000e+00 0.000000000e+00 0.000000000e+00
2.060000e+09 -1.718018343e+00 -8.539443723e-02 -4.033536157e-01 -6.417305117e-02 0.000000000e+00 0.000000000e+00 0.000000000e+00 0.000000000e+00
2.070000e+09 -1.717714770e+00 -8.570613212e-02 -4.031239772e-01 -6.440631678e-02 0.000000000e+00 0.000000000e+00 0.000000000e+00 0.000000000e+00
2.080000e+09 -1.717410310e+00 -8.601652294e-02 -4.028936737e-01 -6.463859126e-02 0.000000000e+00 0.000000000e+00 0.000000000e+00 0.000000000e+00
2.090000e+09 -1.717104973e+00 -8.632560745e-02 -4.026627104e-01 -6.486987293e-02 0.000000000e+00 0.000000000e+00 0.000000000e+00 0.000000000e+00
2.100000e+09 -1.716798763e+00 -8.663338345e-02 -4.024310924e-01 -6.510016014e-02 0.000000000e+00 0.000000000e+00 0.000000000e+00 0.000000000e+00
2.110000e+09 -1.716491689e+00 -8.693984878e-02 -4.021988250e-01 -6.532945129e-02 0.000000000e+00 0.000000000e+00 0.000000000e+00 0.000000000e+00
2.120000e+09 -1.716183757e+00 -8.724500134e-02 -4.019659135e-01 -6.555774479e-02 0.000000000e+00 0.000000000e+00 0.000000000e+00 0.000000000e+00
2.130000e+09 -1.715874974e+00 -8.754883904e-02 -4.017323630e-01 -6.578503910e-02 0.000000000e+00 0.000000000e+00 0.000000000e+00 0.000000000e+00
2.140000e+09 -1.715565346e+00 -8.785135987e-02 -4.014981788e-01 -6.601133271e-02 0.000000000e+00 0.000000000e+00 0.000000000e+00 0.000000000e+00
2.150000e+09 -1.715254881e+00 -8.815256182e-02 -4.012633661e-01 -6.623662413e-02 0.000000000e+00 0.000000000e+00 0.000000000e+00 0.000000000e+00
2.160000e+09 -1.714943585e+00 -8.845244296e-02 -4.010279302e-01 -6.646091191e-02 0.000000000e+00 0.000000000e+00 0.000000000e+00 0.000000000e+00
2.170000e+09 -1.714631466e+00 -8.875100138e-02 -4.007918762e-01 -6.668419465e-02 0.000000000e+00 0.000000000e+00 0.000000000e+00 0.000000000e+00
2.180000e+09 -1.714318529e+00 -8.904823523e-02 -4.005552094e-01 -6.690647094e-02 0.000000000e+00 0.000000000e+00 0.000000000e+00 0.000000000e+00
2.190000e+09 -1.714004783e+00 -8.934414267e-02 -4.003179350e-01 -6.712773944e-02 0.000000000e+00 0.000000000e+00 0.000000000e+00 0.000000000e+00
2.200000e+09 -1.713690233e+00 -8.963872194e-02 -4.000800583e-01 -6.734799884e-02 0.000000000e+00 0.000000000e+00 0.000000000e+00 0.000000000e+00
2.210000e+09 -1.713374887e+00 -8.993197129e-02 -3.998415844e-01 -6.756724783e-02 0.000000000e+00 0.000000000e+00 0.000000000e+00 0.000000000e+00
2.220000e+09 -1.713058751e+00 -9.022388903e-02 -3.996025185e-01 -6.778548516e-02 0.000000000e+00 0.000000000e+00 0.000000000e+00 0.000000000e+00
2.230000e+09 -1.712741832e+00 -9.051447351e-02 -3.993628658e-01 -6.800270961e-02 0.000000000e+00 0.000000000e+00 0.000000000e+00 0.000000000e+00
2.240000e+09 -1.712424138e+00 -9.080372311e-02 -3.991226317e-01 -6.821891999e-02 0.000000000e+00 0.000000000e+00 0.000000000e+00 0.000000000e+00
2.250000e+09 -1.712105674e+00 -9.109163626e-02 -3.988818211e-01 -6.843411511e-02 0.000000000e+00 0.000000000e+00 0.000000000e+00 0.000000000e+00
2.260000e+09 -1.711786448e+00 -9.137821143e-02 -3.986404394e-01 -6.864829387e-02 0.000000000e+00 0.000000000e+00 0.000000000e+00 0.000000000e+00
2.270000e+09 -1.711466466e+00 -9.166344713e-02 -3.983984918e-01 -6.886145515e-02 0.000000000e+00 0.000000000e+00 0.000000000e+00 0.000000000e+00
2.280000e+09 -1.711145736e+00 -9.194734191e-02 -3.981559834e-01 -6.907359789e-02 0.000000000e+00 0.000000000e+00 0.000000000e+00 0.000000000e+00
2.290000e+09 -1.710824264e+00 -9.222989436e-02 -3.979129194e-01 -6.928472104e-02 0.000000000e+00 0.000000000e+00 0.000000000e+00 0.000000000e+00
2.300000e+09 -1.710502056e+00 -9.251110311e-02 -3.976693051e-01 -6.949482360e-02 0.000000000e+00 0.000000000e+00 0.000000000e+00 0.000000000e+00
2.310000e+09 -1.710179121e+00 -9.279096684e-02 -3.974251454e-01 -6.970390460e-02 0.000000000e+00 0.000000000e+00 0.000000000e+00 0.000000000e+00
2.320000e+09 -1.709855463e+00 -9.306948424e-02 -3.971804458e-01 -6.991196308e-02 0.000000000e+00 0.000000000e+00 0.000000000e+00 0.000000000e+00
2.330000e+09 -1.709531091e+00 -9.334665408e-02 -3.969352112e-01 -7.011899813e-02 0.000000000e+00 0.000000000e+00 0.000000000e+00 0.000000000e+00
2.340000e+09 -1.709206010e+00 -9.362247514e-02 -3.966894469e-01 -7.032500887e-02 0.000000000e+00 0.000000000e+00 0.000000000e+00 0.000000000e+00
2.350000e+09 -1.708880229e+00 -9.389694626e-02 -3.964431581e-01 -7.052999443e-02 0.000000000e+00 0.000000000e+00 0.000000000e+00 0.000000000e+00
2.360000e+09 -1.708553753e+00 -9.417006630e-02 -3.961963498e-01 -7.073395401e-02 0.000000000e+00 0.000000000e+00 0.000000000e+00 0.000000000e+00
2.370000e+09 -1.708226589e+00 -9.444183418e-02 -3.959490272e-01 -7.093688679e-02 0.000000000e+00 0.000000000e+00 0.000000000e+00 0.000000000e+00
2.380000e+09 -1.707898743e+00 -9.471224883e-02 -3.957011955e-01 -7.113879202e-02 0.000000000e+00 0.000000000e+00 0.000000000e+00 0.000000000e+00
2.390000e+09 -1.707570224e+00 -9.498130926e-02 -3.954528597e-01 -7.133966896e-02 0.000000000e+00 0.000000000e+00 0.000000000e+00 0.000000000e+00
2.400000e+09 -1.707241037e+00 -9.524901448e-02 -3.952040250e-01 -7.153951690e-02 0.000000000e+00 0.000000000e+00 0.000000000e+00 0.000000000e+00
2.410000e+09 -1.706911189e+00 -9.551536355e-02 -3.949546966e-01 -7.173833518e-02 0.000000000e+00 0.000000000e+00 0.000000000e+00 0.000000000e+00
2.420000e+09 -1.706580686e+00 -9.578035559e-02 -3.947048795e-01 -7.193612314e-02 0.000000000e+00 0.000000000e+00 0.000000000e+00 0.000000000e+00
2.430000e+09 -1.706249537e+00 -9.604398973e-02 -3.944545789e-01 -7.213288016e-02 0.000000000e+00 0.000000000e+00 0.000000000e+00 0.000000000e+00
2.440000e+09 -1.705917746e+00 -9.630626515e-02 -3.942037997e-01 -7.232860567e-02 0.000000000e+00 0.000000000e+00 0.000000000e+00 0.000000000e+00
2.450000e+09 -1.705585321e+00 -9.656718108e-02 -3.939525472e-01 -7.252329909e-02 0.000000000e+00 0.000000000e+00 0.000000000e+00 0.000000000e+00
2.460000e+09 -1.705252268e+00 -9.682673676e-02 -3.937008264e-01 -7.271695991e-02 0.000000000e+00 0.000000000e+00 0.000000000e+00 0.000000000e+00
2.470000e+09 -1.704918595e+00 -9.708493148e-02 -3.934486423e-01 -7.290958762e-02 0.000000000e+00 0.000000000e+00 0.000000000e+00 0.000000000e+00
2.480000e+09 -1.704584307e+00 -9.734176459e-02 -3.931960001e-01 -7.310118174e-02 0.000000000e+00 0.000000000e+00 0.000000000e+00 0.000000000e+00
2.490000e+09 -1.704249412e+00 -9.759723544e-02 -3.929429048e-01 -7.329174185e-02 0.000000000e+00 0.000000000e+00 0.000000000e+00 0.000000000e+00
2.500000e+09 -1.703913916e+00 -9.785134345e-02 -3.926893614e-01 -7.348126751e-02 0.000000000e+00 0.000000000e+00 0.000000000e+00 0.000000000e+00
2.510000e+09 -1.703577825e+00 -9.810408805e-02 -3.924353750e-01 -7.366975834e-02 0.000000000e+00 0.000000000e+00 0.000000000e+00 0.000000000e+00
2.520000e+09 -1.703241147e+00 -9.835546872e-02 -3.921809506e-01 -7.385721400e-02 0.000000000e+00 0.000000000e+00 0.000000000e+00 0.000000000e+00
2.530000e+09 -1.702903888e+00 -9.860548498e-02 -3.919260932e-01 -7.404363413e-02 0.000000000e+00 0.000000000e+00 0.000000000e+00 0.000000000e+00
2.540000e+09 -1.702566053e+00 -9.885413638e-02 -3.916708079e-01 -7.422901845e-02 0.000000000e+00 0.000000000e+00 0.000000000e+00 0.000000000e+00
2.550000e+09 -1.702227651e+00 -9.910142251e-02 -3.914150997e-01 -7.441336668e-02 0.000000000e+00 0.000000000e+00 0.000000000e+00 0.000000000e+00
2.560000e+09 -1.701888687e+00 -9.934734300e-02 -3.911589735e-01 -7.459667857e-02 0.000000000e+00 0.000000000e+00 0.000000000e+00 0.000000000e+00
2.570000e+09 -1.701549169e+00 -9.959189749e-02 -3.909024343e-01 -7.477895390e-02 0.000000000e+00 0.000000000e+00 0.000000000e+00 0.000000000e+00
2.580000e+09 -1.701209102e+00 -9.983508570e-02 -3.906454871e-01 -7.496019248e-02 0.000000000e+00 0.000000000e+00 0.000000000e+00 0.000000000e+00
2.590000e+09 -1.700868493e+00 -1.000769074e-01 -3.903881370e-01 -7.514039414e-02 0.000000000e+00 0.000000000e+00 0.000000000e+00 0.000000000e+00
2.600000e+09 -1.700527348e+00 -1.003173622e-01 -3.901303887e-01 -7.531955875e-02 0.000000000e+00 0.000000000e+00 0.000000000e+00 0.000000000e+00
2.610000e+09 -1.700185675e+00 -1.005564501e-01 -3.898722473e-01 -7.549768620e-02 0.000000000e+00 0.000000000e+00 0.000000000e+00 0.000000000e+00
2.620000e+09 -1.699843479e+00 -1.007941708e-01 -3.896137178e-01 -7.567477640e-02 0.000000000e+00 0.000000000e+00 0.000000000e+00 0.000000000e+00
2.630000e+09 -1.699500767e+00 -1.010305242e-01 -3.893548050e-01 -7.585082929e-02 0.000000000e+00 0.000000000e+00 0.000000000e+00 0.000000000e+00
2.640000e+09 -1.699157546e+00 -1.012655103e-01 -3.890955138e-01 -7.602584484e-02 0.000000000e+00 0.000000000e+00 0.000000000e+00 0.000000000e+00
2.650000e+09 -1.698813821e+00 -1.014991289e-01 -3.888358492e-01 -7.619982306e-02 0.000000000e+00 0.000000000e+00 0.000000000e+00 0.000000000e+00
2.660000e+09 -1.698469600e+00 -1.017313801e-01 -3.885758160e-01 -7.637276396e-02 0.000000000e+00 0.000000000e+00 0.000000000e+00 0.000000000e+00
2.670000e+09 -1.698124889e+00 -1.019622639e-01 -3.883154192e-01 -7.654466758e-02 0.000000000e+00 0.000000000e+00 0.000000000e+00 0.000000000e+00
2.680000e+09 -1.697779694e+00 -1.021917802e-01 -3.880546636e-01 -7.671553401e-02 0.000000000e+00 0.000000000e+00 0.000000000e+00 0.000000000e+00
2.690000e+09 -1.697434021e+00 -1.024199292e-01 -3.877935541e-01 -7.688536333e-02 0.000000000e+00 0.000000000e+00 0.000000000e+00 0.000000000e+00
2.700000e+09 -1.697087877e+00 -1.026467110e-01 -3.875320955e-01 -7.705415569e-02 0.000000000e+00 0.000000000e+00 0.000000000e+00 0.000000000e+00
2.710000e+09 -1.696741268e+00 -1.028721257e-01 -3.872702926e-01 -7.722191122e-02 0.000000000e+00 0.000000000e+00 0.000000000e+00 0.000000000e+00
2.720000e+09 -1.696394201e+00 -1.030961736e-01 -3.870081503e-01 -7.738863011e-02 0.000000000e+00 0.000000000e+00 0.000000000e+00 0.000000000e+00
2.730000e+09 -1.696046682e+00 -1.033188547e-01 -3.867456734e-01 -7.755431255e-02 0.000000000e+00 0.000000000e+00 0.000000000e+00 0.000000000e+00
2.740000e+09 -1.695698717e+00 -1.035401695e-01 -3.864828667e-01 -7.771895877e-02 0.000000000e+00 0.000000000e+00 0.000000000e+00 0.000000000e+00
2.750000e+09 -1.695350312e+00 -1.037601180e-01 -3.862197350e-01 -7.788256902e-02 0.000000000e+00 0.000000000e+00 0.000000000e+00 0.000000000e+00
2.760000e+09 -1.695001474e+00 -1.039787007e-01 -3.859562830e-01 -7.804514358e-02 0.000000000e+00 0.000000000e+00 0.000000000e+00 0.000000000e+00
2.770000e+09 -1.694652209e+00 -1.041959179e-01 -3.856925155e-01 -7.820668275e-02 0.000000000e+00 0.000000000e+00 0.000000000e+00 0.000000000e+00
2.780000e+09 -1.694302524e+00 -1.044117700e-01 -3.854284374e-01 -7.836718685e-02 0.000000000e+00 0.000000000e+00 0.000000000e+00 0.000000000e+00
2.790000e+09 -1.693952424e+00 -1.046262573e-01 -3.851640532e-01 -7.852665624e-02 0.000000000e+00 0.000000000e+00 0.000000000e+00 0.000000000e+00
2.800000e+09 -1.693601915e+00 -1.048393803e-01 -3.848993678e-01 -7.868509128e-02 0.000000000e+00 0.000000000e+00 0.000000000e+00 0.000000000e+00
2.810000e+09 -1.693251004e+00 -1.050511395e-01 -3.846343859e-01 -7.884249237e-02 0.000000000e+00 0.000000000e+00 0.000000000e+00 0.000000000e+00
2.820000e+09 -1.692899698e+00 -1.052615353e-01 -3.843691121e-01 -7.899885994e-02 0.000000000e+00 0.000000000e+00 0.000000000e+00 0.000000000e+00
2.830000e+09 -1.692548001e+00 -1.054705683e-01 -3.841035512e-01 -7.915419442e-02 0.000000000e+00 0.000000000e+00 0.000000000e+00 0.000000000e+00
2.840000e+09 -1.692195921e+00 -1.056782391e-01 -3.838377078e-01 -7.930849630e-02 0.000000000e+00 0.000000000e+00 0.000000000e+00 0.000000000e+00
2.850000e+09 -1.691843464e+00 -1.058845482e-01 -3.835715865e-01 -7.946176605e-02 0.000000000e+00 0.000000000e+00 0.000000000e+00 0.000000000e+00
2.860000e+09 -1.691490634e+00 -1.060894963e-01 -3.833051921e-01 -7.961400419e-02 0.000000000e+00 0.000000000e+00 0.000000000e+00 0.000000000e+00
2.870000e+09 -1.691137440e+00 -1.062930840e-01 -3.830385292e-01 -7.976521127e-02 0.000000000e+00 0.000000000e+00 0.000000000e+00 0.000000000e+00
2.880000e+09 -1.690783886e+00 -1.064953120e-01 -3.827716024e-01 -7.991538784e-02 0.000000000e+00 0.000000000e+00 0.000000000e+00 0.000000000e+00
2.890000e+09 -1.690429979e+00 -1.066961810e-01 -3.825044162e-01 -8.006453448e-02 0.000000000e+00 0.000000000e+00 0.000000000e+00 0.000000000e+00
2.900000e+09 -1.690075725e+00 -1.068956917e-01 -3.822369754e-01 -8.021265181e-02 0.000000000e+00 0.000000000e+00 0.000000000e+00 0.000000000e+00
2.910000e+09 -1.689721130e+00 -1.070938450e-01 -3.819692844e-01 -8.035974044e-02 0.000000000e+00 0.000000000e+00 0.000000000e+00 0.000000000e+00
2.920000e+09 -1.689366199e+00 -1.072906416e-01 -3.817013478e-01 -8.050580104e-02 0.000000000e+00 0.000000000e+00 0.000000000e+00 0.000000000e+00
2.930000e+09 -1.689010940e+00 -1.074860823e-01 -3.814331703e-01 -8.065083427e-02 0.000000000e+00 0.000000000e+00 0.000000000e+00 0.000000000e+00
2.940000e+09 -1.688655357e+00 -1.076801680e-01 -3.811647562e-01 -8.079484083e-02 0.000000000e+00 0.000000000e+00 0.000000000e+00 0.000000000e+00
2.950000e+09 -1.688299456e+00 -1.078728996e-01 -3.808961102e-01 -8.093782144e-02 0.000000000e+00 0.000000000e+00 0.000000000e+00 0.000000000e+00
2.960000e+09 -1.687943245e+00 -1.080642779e-01 -3.806272368e-01 -8.107977683e-02 0.000000000e+00 0.000000000e+00 0.000000000e+00 0.000000000e+00
2.970000e+09 -1.687586728e+00 -1.082543041e-01 -3.803581404e-01 -8.122070776e-02 0.000000000e+00 0.000000000e+00 0.000000000e+00 0.000000000e+00
2.980000e+09 -1.687229911e+00 -1.084429789e-01 -3.800888255e-01 -8.136061502e-02 0.000000000e+00 0.000000000e+00 0.000000000e+00 0.000000000e+00
2.990000e+09 -1.686872801e+00 -1.086303034e-01 -3.798192966e-01 -8.149949940e-02 0.000000000e+00 0.000000000e+00 0.000000000e+00 0.000000000e+00
3.000000e+09 -1.686515403e+00 -1.088162787e-01 -3.795495582e-01 -8.163736173e-02 0.000000000e+00 0.000000000e+00 0.000000000e+00 0.000000000e+00
