! rfsim (KiCad + openEMS)
# HZ S RI R 50
5.000000e+08 -2.756160626e-01 -1.131551925e-03 -7.884228437e+00 -3.555585640e-01 0.000000000e+00 0.000000000e+00 0.000000000e+00 0.000000000e+00
5.100000e+08 -2.756136968e-01 -1.154126203e-03 -7.883488167e+00 -3.626517967e-01 0.000000000e+00 0.000000000e+00 0.000000000e+00 0.000000000e+00
5.200000e+08 -2.756112841e-01 -1.176697101e-03 -7.882733226e+00 -3.697439613e-01 0.000000000e+00 0.000000000e+00 0.000000000e+00 0.000000000e+00
5.300000e+08 -2.756088246e-01 -1.199264552e-03 -7.881963613e+00 -3.768350368e-01 0.000000000e+00 0.000000000e+00 0.000000000e+00 0.000000000e+00
5.400000e+08 -2.756063181e-01 -1.221828488e-03 -7.881179327e+00 -3.839250019e-01 0.000000000e+00 0.000000000e+00 0.000000000e+00 0.000000000e+00
5.500000e+08 -2.756037647e-01 -1.244388843e-03 -7.880380368e+00 -3.910138355e-01 0.000000000e+00 0.000000000e+00 0.000000000e+00 0.000000000e+00
5.600000e+08 -2.756011644e-01 -1.266945550e-03 -7.879566733e+00 -3.981015162e-01 0.000000000e+00 0.000000000e+00 0.000000000e+00 0.000000000e+00
5.700000e+08 -2.755985173e-01 -1.289498540e-03 -7.878738424e+00 -4.051880230e-01 0.000000000e+00 0.000000000e+00 0.000000000e+00 0.000000000e+00
5.800000e+08 -2.755958232e-01 -1.312047747e-03 -7.877895438e+00 -4.122733344e-01 0.000000000e+00 0.000000000e+00 0.000000000e+00 0.000000000e+00
5.900000e+08 -2.755930821e-01 -1.334593103e-03 -7.877037776e+00 -4.193574294e-01 0.000000000e+00 0.000000000e+00 0.000000000e+00 0.000000000e+00
6.000000e+08 -2.755902942e-01 -1.357134542e-03 -7.876165436e+00 -4.264402866e-01 0.000000000e+00 0.000000000e+00 0.000000000e+00 0.000000000e+00
6.100000e+08 -2.755874593e-01 -1.379671994e-03 -7.875278417e+00 -4.335218847e-01 0.000000000e+00 0.000000000e+00 0.000000000e+00 0.000000000e+00
6.200000e+08 -2.755845776e-01 -1.402205394e-03 -7.874376719e+00 -4.406022025e-01 0.000000000e+00 0.000000000e+00 0.000000000e+00 0.000000000e+00
6.300000e+08 -2.755816489e-01 -1.424734672e-03 -7.873460340e+00 -4.476812185e-01 0.000000000e+00 0.000000000e+00 0.000000000e+00 0.000000000e+00
6.400000e+08 -2.755786732e-01 -1.447259763e-03 -7.872529281e+00 -4.547589115e-01 0.000000000e+00 0.000000000e+00 0.000000000e+00 0.000000000e+00
6.500000e+08 -2.755756506e-01 -1.469780597e-03 -7.871583539e+00 -4.618352602e-01 0.000000000e+00 0.000000000e+00 0.000000000e+00 0.000000000e+00
6.600000e+08 -2.755725811e-01 -1.492297107e-03 -7.870623114e+00 -4.689102431e-01 0.000000000e+00 0.000000000e+00 0.000000000e+00 0.000000000e+00
6.700000e+08 -2.755694647e-01 -1.514809226e-03 -7.869648006e+00 -4.759838389e-01 0.000000000e+00 0.000000000e+00 0.000000000e+00 0.000000000e+00
6.800000e+08 -2.755663013e-01 -1.537316885e-03 -7.868658213e+00 -4.830560261e-01 0.000000000e+00 0.000000000e+00 0.000000000e+00 0.000000000e+00
6.900000e+08 -2.755630909e-01 -1.559820017e-03 -7.867653733e+00 -4.901267834e-01 0.000000000e+00 0.000000000e+00 0.000000000e+00 0.000000000e+00
7.000000e+08 -2.755598336e-01 -1.582318553e-03 -7.866634568e+00 -4.971960893e-01 0.000000000e+00 0.000000000e+00 0.000000000e+00 0.000000000e+00
7.100000e+08 -2.755565293e-01 -1.604812425e-03 -7.865600714e+00 -5.042639224e-01 0.000000000e+00 0.000000000e+00 0.000000000e+00 0.000000000e+00
7.200000e+08 -2.755531781e-01 -1.627301566e-03 -7.864552172e+00 -5.113302611e-01 0.000000000e+00 0.000000000e+00 0.000000000e+00 0.000000000e+00
7.300000e+08 -2.755497799e-01 -1.649785907e-03 -7.863488940e+00 -5.183950841e-01 0.000000000e+00 0.000000000e+00 0.000000000e+00 0.000000000e+00
7.400000e+08 -2.755463348e-01 -1.672265379e-03 -7.862411018e+00 -5.254583698e-01 0.000000000e+00 0.000000000e+00 0.000000000e+00 0.000000000e+00
7.500000e+08 -2.755428426e-01 -1.694739915e-03 -7.861318404e+00 -5.325200966e-01 0.000000000e+00 0.000000000e+00 0.000000000e+00 0.000000000e+00
7.600000e+08 -2.755393035e-01 -1.717209446e-03 -7.860211097e+00 -5.395802430e-01 0.000000000e+00 0.000000000e+00 0.000000000e+00 0.000000000e+00
7.700000e+08 -2.755357175e-01 -1.739673903e-03 -7.859089097e+00 -5.466387875e-01 0.000000000e+00 0.000000000e+00 0.000000000e+00 0.000000000e+00
7.800000e+08 -2.755320844e-01 -1.762133219e-03 -7.857952401e+00 -5.536957084e-01 0.000000000e+00 0.000000000e+00 0.000000000e+00 0.000000000e+00
7.900000e+08 -2.755284043e-01 -1.784587324e-03 -7.856801010e+00 -5.607509842e-01 0.000000000e+00 0.000000000e+00 0.000000000e+00 0.000000000e+00
8.000000e+08 -2.755246773e-01 -1.807036149e-03 -7.855634922e+00 -5.678045933e-01 0.000000000e+00 0.000000000e+00 0.000000000e+00 0.000000000e+00
8.100000e+08 -2.755209033e-01 -1.829479627e-03 -7.854454136e+00 -5.748565139e-01 0.000000000e+00 0.000000000e+00 0.000000000e+00 0.000000000e+00
8.200000e+08 -2.755170822e-01 -1.851917687e-03 -7.853258651e+00 -5.819067244e-01 0.000000000e+00 0.000000000e+00 0.000000000e+00 0.000000000e+00
8.300000e+08 -2.755132142e-01 -1.874350262e-03 -7.852048466e+00 -5.889552032e-01 0.000000000e+00 0.000000000e+00 0.000000000e+00 0.000000000e+00
8.400000e+08 -2.755092991e-01 -1.896777282e-03 -7.850823579e+00 -5.960019285e-01 0.000000000e+00 0.000000000e+00 0.000000000e+00 0.000000000e+00
8.500000e+08 -2.755053371e-01 -1.919198678e-03 -7.849583990e+00 -6.030468786e-01 0.000000000e+00 0.000000000e+00 0.000000000e+00 0.000000000e+00
8.600000e+08 -2.755013280e-01 -1.941614381e-03 -7.848329697e+00 -6.100900317e-01 0.000000000e+00 0.000000000e+00 0.000000000e+00 0.000000000e+00
8.700000e+08 -2.754972719e-01 -1.964024322e-03 -7.847060700e+00 -6.171313661e-01 0.000000000e+00 0.000000000e+00 0.000000000e+00 0.000000000e+00
8.800000e+08 -2.754931687e-01 -1.986428431e-03 -7.845776997e+00 -6.241708600e-01 0.000000000e+00 0.000000000e+00 0.000000000e+00 0.000000000e+00
8.900000e+08 -2.754890186e-01 -2.008826639e-03 -7.844478586e+00 -6.312084915e-01 0.000000000e+00 0.000000000e+00 0.000000000e+00 0.000000000e+00
9.000000e+08 -2.754848214e-01 -2.031218877e-03 -7.843165467e+00 -6.382442389e-01 0.000000000e+00 0.000000000e+00 0.000000000e+00 0.000000000e+00
9.100000e+08 -2.754805771e-01 -2.053605075e-03 -7.841837639e+00 -6.452780801e-01 0.000000000e+00 0.000000000e+00 0.000000000e+00 0.000000000e+00
9.200000e+08 -2.754762858e-01 -2.075985164e-03 -7.840495100e+00 -6.523099935e-01 0.000000000e+00 0.000000000e+00 0.000000000e+00 0.000000000e+00
9.300000e+08 -2.754719475e-01 -2.098359073e-03 -7.839137850e+00 -6.593399570e-01 0.000000000e+00 0.000000000e+00 0.000000000e+00 0.000000000e+00
9.400000e+08 -2.754675621e-01 -2.120726733e-03 -7.837765886e+00 -6.663679487e-01 0.000000000e+00 0.000000000e+00 0.000000000e+00 0.000000000e+00
9.500000e+08 -2.754631297e-01 -2.143088074e-03 -7.836379207e+00 -6.733939466e-01 0.000000000e+00 0.000000000e+00 0.000000000e+00 0.000000000e+00
9.600000e+08 -2.754586502e-01 -2.165443027e-03 -7.834977813e+00 -6.804179288e-01 0.000000000e+00 0.000000000e+00 0.000000000e+00 0.000000000e+00
9.700000e+08 -2.754541236e-01 -2.187791520e-03 -7.833561703e+00 -6.874398733e-01 0.000000000e+00 0.000000000e+00 0.000000000e+00 0.000000000e+00
9.800000e+08 -2.754495500e-01 -2.210133484e-03 -7.832130874e+00 -6.944597580e-01 0.000000000e+00 0.000000000e+00 0.000000000e+00 0.000000000e+00
9.900000e+08 -2.754449292e-01 -2.232468849e-03 -7.830685325e+00 -7.014775609e-01 0.000000000e+00 0.000000000e+00 0.000000000e+00 0.000000000e+00
1.000000e+09 -2.754402614e-01 -2.254797544e-03 -7.829225056e+00 -7.084932599e-01 0.000000000e+00 0.000000000e+00 0.000000000e+00 0.000000000e+00
1.010000e+09 -2.754355465e-01 -2.277119499e-03 -7.827750065e+00 -7.155068329e-01 0.000000000e+00 0.000000000e+00 0.000000000e+00 0.000000000e+00
1.020000e+09 -2.754307845e-01 -2.299434643e-03 -7.826260351e+00 -7.225182577e-01 0.000000000e+00 0.000000000e+00 0.000000000e+00 0.000000000e+00
1.030000e+09 -2.754259754e-01 -2.321742907e-03 -7.824755912e+00 -7.295275122e-01 0.000000000e+00 0.000000000e+00 0.000000000e+00 0.000000000e+00
1.040000e+09 -2.754211193e-01 -2.344044218e-03 -7.823236747e+00 -7.365345742e-01 0.000000000e+00 0.000000000e+00 0.000000000e+00 0.000000000e+00
1.050000e+09 -2.754162160e-01 -2.366338506e-03 -7.821702855e+00 -7.435394215e-01 0.000000000e+00 0.000000000e+00 0.000000000e+00 0.000000000e+00
1.060000e+09 -2.754112656e-01 -2.388625701e-03 -7.820154234e+00 -7.505420319e-01 0.000000000e+00 0.000000000e+00 0.000000000e+00 0.000000000e+00
1.070000e+09 -2.754062680e-01 -2.410905731e-03 -7.818590883e+00 -7.575423830e-01 0.000000000e+00 0.000000000e+00 0.000000000e+00 0.000000000e+00
1.080000e+09 -2.754012234e-01 -2.433178526e-03 -7.817012801e+00 -7.645404527e-01 0.000000000e+00 0.000000000e+00 0.000000000e+00 0.000000000e+00
1.090000e+09 -2.753961316e-01 -2.455444013e-03 -7.815419986e+00 -7.715362185e-01 0.000000000e+00 0.000000000e+00 0.000000000e+00 0.000000000e+00
1.100000e+09 -2.753909927e-01 -2.477702122e-03 -7.813812437e+00 -7.785296581e-01 0.000000000e+00 0.000000000e+00 0.000000000e+00 0.000000000e+00
1.110000e+09 -2.753858066e-01 -2.499952782e-03 -7.812190152e+00 -7.855207491e-01 0.000000000e+00 0.000000000e+00 0.000000000e+00 0.000000000e+00
1.120000e+09 -2.753805734e-01 -2.522195921e-03 -7.810553131e+00 -7.925094692e-01 0.000000000e+00 0.000000000e+00 0.000000000e+00 0.000000000e+00
1.130000e+09 -2.753752931e-01 -2.544431467e-03 -7.808901371e+00 -7.994957959e-01 0.000000000e+00 0.000000000e+00 0.000000000e+00 0.000000000e+00
1.140000e+09 -2.753699656e-01 -2.566659348e-03 -7.807234872e+00 -8.064797068e-01 0.000000000e+00 0.000000000e+00 0.000000000e+00 0.000000000e+00
1.150000e+09 -2.753645909e-01 -2.588879493e-03 -7.805553631e+00 -8.134611793e-01 0.000000000e+00 0.000000000e+00 0.000000000e+00 0.000000000e+00
1.160000e+09 -2.753591691e-01 -2.611091830e-03 -7.803857648e+00 -8.204401909e-01 0.000000000e+00 0.000000000e+00 0.000000000e+00 0.000000000e+00
1.170000e+09 -2.753537001e-01 -2.633296287e-03 -7.802146921e+00 -8.274167191e-01 0.000000000e+00 0.000000000e+00 0.000000000e+00 0.000000000e+00
1.180000e+09 -2.753481839e-01 -2.655492792e-03 -7.800421449e+00 -8.343907413e-01 0.000000000e+00 0.000000000e+00 0.000000000e+00 0.000000000e+00
1.190000e+09 -2.753426205e-01 -2.677681272e-03 -7.798681229e+00 -8.413622349e-01 0.000000000e+00 0.000000000e+00 0.000000000e+00 0.000000000e+00
1.200000e+09 -2.753370100e-01 -2.699861655e-03 -7.796926262e+00 -8.483311772e-01 0.000000000e+00 0.000000000e+00 0.000000000e+00 0.000000000e+00
1.210000e+09 -2.753313522e-01 -2.722033869e-03 -7.795156544e+00 -8.552975456e-01 0.000000000e+00 0.000000000e+00 0.000000000e+00 0.000000000e+00
1.220000e+09 -2.753256473e-01 -2.744197840e-03 -7.793372075e+00 -8.622613173e-01 0.000000000e+00 0.000000000e+00 0.000000000e+00 0.000000000e+00
1.230000e+09 -2.753198952e-01 -2.766353498e-03 -7.791572853e+00 -8.692224697e-01 0.000000000e+00 0.000000000e+00 0.000000000e+00 0.000000000e+00
1.240000e+09 -2.753140958e-01 -2.788500767e-03 -7.789758877e+00 -8.761809800e-01 0.000000000e+00 0.000000000e+00 0.000000000e+00 0.000000000e+00
1.250000e+09 -2.753082492e-01 -2.810639577e-03 -7.787930146e+00 -8.831368253e-01 0.000000000e+00 0.000000000e+00 0.000000000e+00 0.000000000e+00
1.260000e+09 -2.753023554e-01 -2.832769853e-03 -7.786086657e+00 -8.900899828e-01 0.000000000e+00 0.000000000e+00 0.000000000e+00 0.000000000e+00
1.270000e+09 -2.752964144e-01 -2.854891523e-03 -7.784228409e+00 -8.970404298e-01 0.000000000e+00 0.000000000e+00 0.000000000e+00 0.000000000e+00
1.280000e+09 -2.752904261e-01 -2.877004513e-03 -7.782355401e+00 -9.039881432e-01 0.000000000e+00 0.000000000e+00 0.000000000e+00 0.000000000e+00
1.290000e+09 -2.752843906e-01 -2.899108749e-03 -7.780467631e+00 -9.109331002e-01 0.000000000e+00 0.000000000e+00 0.000000000e+00 0.000000000e+00
1.300000e+09 -2.752783079e-01 -2.921204160e-03 -7.778565098e+00 -9.178752778e-01 0.000000000e+00 0.000000000e+00 0.000000000e+00 0.000000000e+00
1.310000e+09 -2.752721779e-01 -2.943290669e-03 -7.776647800e+00 -9.248146530e-01 0.000000000e+00 0.000000000e+00 0.000000000e+00 0.000000000e+00
1.320000e+09 -2.752660007e-01 -2.965368205e-03 -7.774715735e+00 -9.317512028e-01 0.000000000e+00 0.000000000e+00 0.000000000e+00 0.000000000e+00
1.330000e+09 -2.752597761e-01 -2.987436693e-03 -7.772768903e+00 -9.386849041e-01 0.000000000e+00 0.000000000e+00 0.000000000e+00 0.000000000e+00
1.340000e+09 -2.752535044e-01 -3.009496060e-03 -7.770807301e+00 -9.456157339e-01 0.000000000e+00 0.000000000e+00 0.000000000e+00 0.000000000e+00
1.350000e+09 -2.752471853e-01 -3.031546230e-03 -7.768830928e+00 -9.525436689e-01 0.000000000e+00 0.000000000e+00 0.000000000e+00 0.000000000e+00
1.360000e+09 -2.752408190e-01 -3.053587130e-03 -7.766839782e+00 -9.594686861e-01 0.000000000e+00 0.000000000e+00 0.000000000e+00 0.000000000e+00
1.370000e+09 -2.752344053e-01 -3.075618686e-03 -7.764833862e+00 -9.663907622e-01 0.000000000e+00 0.000000000e+00 0.000000000e+00 0.000000000e+00
1.380000e+09 -2.752279444e-01 -3.097640822e-03 -7.762813166e+00 -9.733098741e-01 0.000000000e+00 0.000000000e+00 0.000000000e+00 0.000000000e+00
1.390000e+09 -2.752214362e-01 -3.119653466e-03 -7.760777693e+00 -9.802259984e-01 0.000000000e+00 0.000000000e+00 0.000000000e+00 0.000000000e+00
1.400000e+09 -2.752148807e-01 -3.141656540e-03 -7.758727441e+00 -9.871391118e-01 0.000000000e+00 0.000000000e+00 0.000000000e+00 0.000000000e+00
1.410000e+09 -2.752082779e-01 -3.163649972e-03 -7.756662409e+00 -9.940491911e-01 0.000000000e+00 0.000000000e+00 0.000000000e+00 0.000000000e+00
1.420000e+09 -2.752016277e-01 -3.185633685e-03 -7.754582594e+00 -1.000956213e+00 0.000000000e+00 0.000000000e+00 0.000000000e+00 0.000000000e+00
1.430000e+09 -2.751949303e-01 -3.207607606e-03 -7.752487996e+00 -1.007860153e+00 0.000000000e+00 0.000000000e+00 0.000000000e+00 0.000000000e+00
1.440000e+09 -2.751881855e-01 -3.229571657e-03 -7.750378612e+00 -1.014760990e+00 0.000000000e+00 0.000000000e+00 0.000000000e+00 0.000000000e+00
1.450000e+09 -2.751813933e-01 -3.251525765e-03 -7.748254442e+00 -1.021658698e+00 0.000000000e+00 0.000000000e+00 0.000000000e+00 0.000000000e+00
1.460000e+09 -2.751745539e-01 -3.273469854e-03 -7.746115482e+00 -1.028553255e+00 0.000000000e+00 0.000000000e+00 0.000000000e+00 0.000000000e+00
1.470000e+09 -2.751676671e-01 -3.295403847e-03 -7.743961733e+00 -1.035444637e+00 0.000000000e+00 0.000000000e+00 0.000000000e+00 0.000000000e+00
1.480000e+09 -2.751607329e-01 -3.317327670e-03 -7.741793192e+00 -1.042332821e+00 0.000000000e+00 0.000000000e+00 0.000000000e+00 0.000000000e+00
1.490000e+09 -2.751537514e-01 -3.339241245e-03 -7.739609858e+00 -1.049217782e+00 0.000000000e+00 0.000000000e+00 0.000000000e+00 0.000000000e+00
1.500000e+09 -2.751467225e-01 -3.361144498e-03 -7.737411728e+00 -1.056099497e+00 0.000000000e+00 0.000000000e+00 0.000000000e+00 0.000000000e+00
1.510000e+09 -2.751396462e-01 -3.383037352e-03 -7.735198802e+00 -1.062977943e+00 0.000000000e+00 0.000000000e+00 0.000000000e+00 0.000000000e+00
1.520000e+09 -2.751325226e-01 -3.404919731e-03 -7.732971078e+00 -1.069853095e+00 0.000000000e+00 0.000000000e+00 0.000000000e+00 0.000000000e+00
1.530000e+09 -2.751253516e-01 -3.426791558e-03 -7.730728554e+00 -1.076724930e+00 0.000000000e+00 0.000000000e+00 0.000000000e+00 0.000000000e+00
1.540000e+09 -2.751181332e-01 -3.448652757e-03 -7.728471229e+00 -1.083593425e+00 0.000000000e+00 0.000000000e+00 0.000000000e+00 0.000000000e+00
1.550000e+09 -2.751108674e-01 -3.470503251e-03 -7.726199100e+00 -1.090458554e+00 0.000000000e+00 0.000000000e+00 0.000000000e+00 0.000000000e+00
1.560000e+09 -2.751035542e-01 -3.492342963e-03 -7.723912166e+00 -1.097320295e+00 0.000000000e+00 0.000000000e+00 0.000000000e+00 0.000000000e+00
1.570000e+09 -2.750961935e-01 -3.514171816e-03 -7.721610426e+00 -1.104178623e+00 0.000000000e+00 0.000000000e+00 0.000000000e+00 0.000000000e+00
1.580000e+09 -2.750887855e-01 -3.535989732e-03 -7.719293878e+00 -1.111033515e+00 0.000000000e+00 0.000000000e+00 0.000000000e+00 0.000000000e+00
1.590000e+09 -2.750813301e-01 -3.557796636e-03 -7.716962520e+00 -1.117884946e+00 0.000000000e+00 0.000000000e+00 0.000000000e+00 0.000000000e+00
1.600000e+09 -2.750738272e-01 -3.579592448e-03 -7.714616351e+00 -1.124732892e+00 0.000000000e+00 0.000000000e+00 0.000000000e+00 0.000000000e+00
1.610000e+09 -2.750662769e-01 -3.601377093e-03 -7.712255369e+00 -1.131577329e+00 0.000000000e+00 0.000000000e+00 0.000000000e+00 0.000000000e+00
1.620000e+09 -2.750586792e-01 -3.623150491e-03 -7.709879573e+00 -1.138418234e+00 0.000000000e+00 0.000000000e+00 0.000000000e+00 0.000000000e+00
1.630000e+09 -2.750510340e-01 -3.644912565e-03 -7.707488960e+00 -1.145255581e+00 0.000000000e+00 0.000000000e+00 0.000000000e+00 0.000000000e+00
1.640000e+09 -2.750433414e-01 -3.666663237e-03 -7.705083529e+00 -1.152089347e+00 0.000000000e+00 0.000000000e+00 0.000000000e+00 0.000000000e+00
1.650000e+09 -2.750356013e-01 -3.688402429e-03 -7.702663278e+00 -1.158919507e+00 0.000000000e+00 0.000000000e+00 0.000000000e+00 0.000000000e+00
1.660000e+09 -2.750278137e-01 -3.710130062e-03 -7.700228206e+00 -1.165746037e+00 0.000000000e+00 0.000000000e+00 0.000000000e+00 0.000000000e+00
1.670000e+09 -2.750199787e-01 -3.731846059e-03 -7.697778311e+00 -1.172568913e+00 0.000000000e+00 0.000000000e+00 0.000000000e+00 0.000000000e+00
1.680000e+09 -2.750120962e-01 -3.753550340e-03 -7.695313592e+00 -1.179388110e+00 0.000000000e+00 0.000000000e+00 0.000000000e+00 0.000000000e+00
1.690000e+09 -2.750041663e-01 -3.775242826e-03 -7.692834047e+00 -1.186203605e+00 0.000000000e+00 0.000000000e+00 0.000000000e+00 0.000000000e+00
1.700000e+09 -2.749961888e-01 -3.796923440e-03 -7.690339673e+00 -1.193015371e+00 0.000000000e+00 0.000000000e+00 0.000000000e+00 0.000000000e+00
1.710000e+09 -2.749881639e-01 -3.818592101e-03 -7.687830471e+00 -1.199823385e+00 0.000000000e+00 0.000000000e+00 0.000000000e+00 0.000000000e+00
1.720000e+09 -2.749800914e-01 -3.840248731e-03 -7.685306437e+00 -1.206627623e+00 0.000000000e+00 0.000000000e+00 0.000000000e+00 0.000000000e+00
1.730000e+09 -2.749719715e-01 -3.861893250e-03 -7.682767570e+00 -1.213428059e+00 0.000000000e+00 0.000000000e+00 0.000000000e+00 0.000000000e+00
1.740000e+09 -2.749638040e-01 -3.883525579e-03 -7.680213869e+00 -1.220224669e+00 0.000000000e+00 0.000000000e+00 0.000000000e+00 0.000000000e+00
1.750000e+09 -2.749555891e-01 -3.905145638e-03 -7.677645332e+00 -1.227017429e+00 0.000000000e+00 0.000000000e+00 0.000000000e+00 0.000000000e+00
1.760000e+09 -2.749473266e-01 -3.926753347e-03 -7.675061957e+00 -1.233806313e+00 0.000000000e+00 0.000000000e+00 0.000000000e+00 0.000000000e+00
1.770000e+09 -2.749390166e-01 -3.948348627e-03 -7.672463742e+00 -1.240591297e+00 0.000000000e+00 0.000000000e+00 0.000000000e+00 0.000000000e+00
1.780000e+09 -2.749306590e-01 -3.969931397e-03 -7.669850687e+00 -1.247372356e+00 0.000000000e+00 0.000000000e+00 0.000000000e+00 0.000000000e+00
1.790000e+09 -2.749222539e-01 -3.991501576e-03 -7.667222789e+00 -1.254149465e+00 0.000000000e+00 0.000000000e+00 0.000000000e+00 0.000000000e+00
1.800000e+09 -2.749138013e-01 -4.013059085e-03 -7.664580046e+00 -1.260922599e+00 0.000000000e+00 0.000000000e+00 0.000000000e+00 0.000000000e+00
1.810000e+09 -2.749053011e-01 -4.034603843e-03 -7.661922458e+00 -1.267691733e+00 0.000000000e+00 0.000000000e+00 0.000000000e+00 0.000000000e+00
1.820000e+09 -2.748967533e-01 -4.056135770e-03 -7.659250022e+00 -1.274456843e+00 0.000000000e+00 0.000000000e+00 0.000000000e+00 0.000000000e+00
1.830000e+09 -2.748881580e-01 -4.077654783e-03 -7.656562737e+00 -1.281217902e+00 0.000000000e+00 0.000000000e+00 0.000000000e+00 0.000000000e+00
1.840000e+09 -2.748795152e-01 -4.099160803e-03 -7.653860601e+00 -1.287974887e+00 0.000000000e+00 0.000000000e+00 0.000000000e+00 0.000000000e+00
1.850000e+09 -2.748708247e-01 -4.120653747e-03 -7.651143613e+00 -1.294727771e+00 0.000000000e+00 0.000000000e+00 0.000000000e+00 0.000000000e+00
1.860000e+09 -2.748620867e-01 -4.142133536e-03 -7.648411771e+00 -1.301476530e+00 0.000000000e+00 0.000000000e+00 0.000000000e+00 0.000000000e+00
1.870000e+09 -2.748533011e-01 -4.163600086e-03 -7.645665073e+00 -1.308221139e+00 0.000000000e+00 0.000000000e+00 0.000000000e+00 0.000000000e+00
1.880000e+09 -2.748444679e-01 -4.185053317e-03 -7.642903517e+00 -1.314961571e+00 0.000000000e+00 0.000000000e+00 0.000000000e+00 0.000000000e+00
1.890000e+09 -2.748355871e-01 -4.206493147e-03 -7.640127103e+00 -1.321697802e+00 0.000000000e+00 0.000000000e+00 0.000000000e+00 0.000000000e+00
1.900000e+09 -2.748266586e-01 -4.227919493e-03 -7.637335828e+00 -1.328429807e+00 0.000000000e+00 0.000000000e+00 0.000000000e+00 0.000000000e+00
1.910000e+09 -2.748176826e-01 -4.249332273e-03 -7.634529691e+00 -1.335157560e+00 0.000000000e+00 0.000000000e+00 0.000000000e+00 0.000000000e+00
1.920000e+09 -2.748086590e-01 -4.270731406e-03 -7.631708691e+00 -1.341881035e+00 0.000000000e+00 0.000000000e+00 0.000000000e+00 0.000000000e+00
1.930000e+09 -2.747995878e-01 -4.292116808e-03 -7.628872825e+00 -1.348600206e+00 0.000000000e+00 0.000000000e+00 0.000000000e+00 0.000000000e+00
1.940000e+09 -2.747904689e-01 -4.313488397e-03 -7.626022092e+00 -1.355315050e+00 0.000000000e+00 0.000000000e+00 0.000000000e+00 0.000000000e+00
1.950000e+09 -2.747813024e-01 -4.334846090e-03 -7.623156491e+00 -1.362025539e+00 0.000000000e+00 0.000000000e+00 0.000000000e+00 0.000000000e+00
1.960000e+09 -2.747720882e-01 -4.356189804e-03 -7.620276020e+00 -1.368731647e+00 0.000000000e+00 0.000000000e+00 0.000000000e+00 0.000000000e+00
1.970000e+09 -2.747628265e-01 -4.377519456e-03 -7.617380677e+00 -1.375433351e+00 0.000000000e+00 0.000000000e+00 0.000000000e+00 0.000000000e+00
1.980000e+09 -2.747535170e-01 -4.398834963e-03 -7.614470461e+00 -1.382130622e+00 0.000000000e+00 0.000000000e+00 0.000000000e+00 0.000000000e+00
1.990000e+09 -2.747441599e-01 -4.420136241e-03 -7.611545371e+00 -1.388823436e+00 0.000000000e+00 0.000000000e+00 0.000000000e+00 0.000000000e+00
2.000000e+09 -2.747347552e-01 -4.441423206e-03 -7.608605404e+00 -1.395511767e+00 0.000000000e+00 0.000000000e+00 0.000000000e+00 0.000000000e+00
2.010000e+09 -2.747253028e-01 -4.462695775e-03 -7.605650559e+00 -1.402195589e+00 0.000000000e+00 0.000000000e+00 0.000000000e+00 0.000000000e+00
2.020000e+09 -2.747158027e-01 -4.483953864e-03 -7.602680835e+00 -1.408874876e+00 0.000000000e+00 0.000000000e+00 0.000000000e+00 0.000000000e+00
2.030000e+09 -2.747062550e-01 -4.505197388e-03 -7.599696230e+00 -1.415549602e+00 0.000000000e+00 0.000000000e+00 0.000000000e+00 0.000000000e+00
2.040000e+09 -2.746966596e-01 -4.526426263e-03 -7.596696743e+00 -1.422219740e+00 0.000000000e+00 0.000000000e+00 0.000000000e+00 0.000000000e+00
2.050000e+09 -2.746870165e-01 -4.547640406e-03 -7.593682372e+00 -1.428885265e+00 0.000000000e+00 0.000000000e+00 0.000000000e+00 0.000000000e+00
2.060000e+09 -2.746773257e-01 -4.568839730e-03 -7.590653115e+00 -1.435546150e+00 0.000000000e+00 0.000000000e+00 0.000000000e+00 0.000000000e+00
2.070000e+09 -2.746675872e-01 -4.590024152e-03 -7.587608972e+00 -1.442202370e+00 0.000000000e+00 0.000000000e+00 0.000000000e+00 0.000000000e+00
2.080000e+09 -2.746578010e-01 -4.611193585e-03 -7.584549940e+00 -1.448853897e+00 0.000000000e+00 0.000000000e+00 0.000000000e+00 0.000000000e+00
2.090000e+09 -2.746479671e-01 -4.632347946e-03 -7.581476018e+00 -1.455500706e+00 0.000000000e+00 0.000000000e+00 0.000000000e+00 0.000000000e+00
2.100000e+09 -2.746380855e-01 -4.653487149e-03 -7.578387205e+00 -1.462142770e+00 0.000000000e+00 0.000000000e+00 0.000000000e+00 0.000000000e+00
2.110000e+09 -2.746281562e-01 -4.674611108e-03 -7.575283499e+00 -1.468780062e+00 0.000000000e+00 0.000000000e+00 0.000000000e+00 0.000000000e+00
2.120000e+09 -2.746181792e-01 -4.695719738e-03 -7.572164899e+00 -1.475412557e+00 0.000000000e+00 0.000000000e+00 0.000000000e+00 0.000000000e+00
2.130000e+09 -2.746081544e-01 -4.716812952e-03 -7.569031403e+00 -1.482040228e+00 0.000000000e+00 0.000000000e+00 0.000000000e+00 0.000000000e+00
2.140000e+09 -2.745980819e-01 -4.737890665e-03 -7.565883010e+00 -1.488663047e+00 0.000000000e+00 0.000000000e+00 0.000000000e+00 0.000000000e+00
2.150000e+09 -2.745879617e-01 -4.758952791e-03 -7.562719718e+00 -1.495280989e+00 0.000000000e+00 0.000000000e+00 0.000000000e+00 0.000000000e+00
2.160000e+09 -2.745777938e-01 -4.779999243e-03 -7.559541527e+00 -1.501894026e+00 0.000000000e+00 0.000000000e+00 0.000000000e+00 0.000000000e+00
2.170000e+09 -2.745675781e-01 -4.801029934e-03 -7.556348434e+00 -1.508502133e+00 0.000000000e+00 0.000000000e+00 0.000000000e+00 0.000000000e+00
2.180000e+09 -2.745573146e-01 -4.822044779e-03 -7.553140438e+00 -1.515105281e+00 0.000000000e+00 0.000000000e+00 0.000000000e+00 0.000000000e+00
2.190000e+09 -2.745470034e-01 -4.843043689e-03 -7.549917538e+00 -1.521703444e+00 0.000000000e+00 0.000000000e+00 0.000000000e+00 0.000000000e+00
2.200000e+09 -2.745366445e-01 -4.864026578e-03 -7.546679733e+00 -1.528296596e+00 0.000000000e+00 0.000000000e+00 0.000000000e+00 0.000000000e+00
2.210000e+09 -2.745262378e-01 -4.884993360e-03 -7.543427021e+00 -1.534884709e+00 0.000000000e+00 0.000000000e+00 0.000000000e+00 0.000000000e+00
2.220000e+09 -2.745157833e-01 -4.905943945e-03 -7.540159400e+00 -1.541467756e+00 0.000000000e+00 0.000000000e+00 0.000000000e+00 0.000000000e+00
2.230000e+09 -2.745052810e-01 -4.926878247e-03 -7.536876870e+00 -1.548045710e+00 0.000000000e+00 0.000000000e+00 0.000000000e+00 0.000000000e+00
2.240000e+09 -2.744947310e-01 -4.947796178e-03 -7.533579429e+00 -1.554618544e+00 0.000000000e+00 0.000000000e+00 0.000000000e+00 0.000000000e+00
2.250000e+09 -2.744841332e-01 -4.968697650e-03 -7.530267076e+00 -1.561186231e+00 0.000000000e+00 0.000000000e+00 0.000000000e+00 0.000000000e+00
2.260000e+09 -2.744734877e-01 -4.989582575e-03 -7.526939809e+00 -1.567748743e+00 0.000000000e+00 0.000000000e+00 0.000000000e+00 0.000000000e+00
2.270000e+09 -2.744627943e-01 -5.010450864e-03 -7.523597628e+00 -1.574306053e+00 0.000000000e+00 0.000000000e+00 0.000000000e+00 0.000000000e+00
2.280000e+09 -2.744520532e-01 -5.031302430e-03 -7.520240530e+00 -1.580858134e+00 0.000000000e+00 0.000000000e+00 0.000000000e+00 0.000000000e+00
2.290000e+09 -2.744412642e-01 -5.052137183e-03 -7.516868516e+00 -1.587404958e+00 0.000000000e+00 0.000000000e+00 0.000000000e+00 0.000000000e+00
2.300000e+09 -2.744304275e-01 -5.072955035e-03 -7.513481582e+00 -1.593946498e+00 0.000000000e+00 0.000000000e+00 0.000000000e+00 0.000000000e+00
2.310000e+09 -2.744195429e-01 -5.093755896e-03 -7.510079729e+00 -1.600482726e+00 0.000000000e+00 0.000000000e+00 0.000000000e+00 0.000000000e+00
2.320000e+09 -2.744086106e-01 -5.114539677e-03 -7.506662955e+00 -1.607013615e+00 0.000000000e+00 0.000000000e+00 0.000000000e+00 0.000000000e+00
2.330000e+09 -2.743976305e-01 -5.135306290e-03 -7.503231259e+00 -1.613539137e+00 0.000000000e+00 0.000000000e+00 0.000000000e+00 0.000000000e+00
2.340000e+09 -2.743866025e-01 -5.156055644e-03 -7.499784640e+00 -1.620059264e+00 0.000000000e+00 0.000000000e+00 0.000000000e+00 0.000000000e+00
2.350000e+09 -2.743755267e-01 -5.176787649e-03 -7.496323095e+00 -1.626573968e+00 0.000000000e+00 0.000000000e+00 0.000000000e+00 0.000000000e+00
2.360000e+09 -2.743644031e-01 -5.197502217e-03 -7.492846626e+00 -1.633083222e+00 0.000000000e+00 0.000000000e+00 0.000000000e+00 0.000000000e+00
2.370000e+09 -2.743532317e-01 -5.218199256e-03 -7.489355229e+00 -1.639586997e+00 0.000000000e+00 0.000000000e+00 0.000000000e+00 0.000000000e+00
2.380000e+09 -2.743420124e-01 -5.238878676e-03 -7.485848905e+00 -1.646085266e+00 0.000000000e+00 0.000000000e+00 0.000000000e+00 0.000000000e+00
2.390000e+09 -2.743307454e-01 -5.259540387e-03 -7.482327651e+00 -1.652578001e+00 0.000000000e+00 0.000000000e+00 0.000000000e+00 0.000000000e+00
2.400000e+09 -2.743194305e-01 -5.280184298e-03 -7.478791467e+00 -1.659065173e+00 0.000000000e+00 0.000000000e+00 0.000000000e+00 0.000000000e+00
2.410000e+09 -2.743080677e-01 -5.300810319e-03 -7.475240352e+00 -1.665546755e+00 0.000000000e+00 0.000000000e+00 0.000000000e+00 0.000000000e+00
2.420000e+09 -2.742966571e-01 -5.321418358e-03 -7.471674305e+00 -1.672022718e+00 0.000000000e+00 0.000000000e+00 0.000000000e+00 0.000000000e+00
2.430000e+09 -2.742851987e-01 -5.342008325e-03 -7.468093325e+00 -1.678493034e+00 0.000000000e+00 0.000000000e+00 0.000000000e+00 0.000000000e+00
2.440000e+09 -2.742736924e-01 -5.362580127e-03 -7.464497410e+00 -1.684957675e+00 0.000000000e+00 0.000000000e+00 0.000000000e+00 0.000000000e+00
2.450000e+09 -2.742621383e-01 -5.383133673e-03 -7.460886560e+00 -1.691416612e+00 0.000000000e+00 0.000000000e+00 0.000000000e+00 0.000000000e+00
2.460000e+09 -2.742505363e-01 -5.403668871e-03 -7.457260774e+00 -1.697869816e+00 0.000000000e+00 0.000000000e+00 0.000000000e+00 0.000000000e+00
2.470000e+09 -2.742388865e-01 -5.424185630e-03 -7.453620050e+00 -1.704317260e+00 0.000000000e+00 0.000000000e+00 0.000000000e+00 0.000000000e+00
2.480000e+09 -2.742271888e-01 -5.444683857e-03 -7.449964389e+00 -1.710758915e+00 0.000000000e+00 0.000000000e+00 0.000000000e+00 0.000000000e+00
2.490000e+09 -2.742154433e-01 -5.465163460e-03 -7.446293788e+00 -1.717194751e+00 0.000000000e+00 0.000000000e+00 0.000000000e+00 0.000000000e+00
2.500000e+09 -2.742036499e-01 -5.485624347e-03 -7.442608247e+00 -1.723624742e+00 0.000000000e+00 0.000000000e+00 0.000000000e+00 0.000000000e+00
2.510000e+09 -2.741918086e-01 -5.506066424e-03 -7.438907765e+00 -1.730048856e+00 0.000000000e+00 0.000000000e+00 0.000000000e+00 0.000000000e+00
2.520000e+09 -2.741799195e-01 -5.526489599e-03 -7.435192342e+00 -1.736467067e+00 0.000000000e+00 0.000000000e+00 0.000000000e+00 0.000000000e+00
2.530000e+09 -2.741679825e-01 -5.546893778e-03 -7.431461976e+00 -1.742879344e+00 0.000000000e+00 0.000000000e+00 0.000000000e+00 0.000000000e+00
2.540000e+09 -2.741559976e-01 -5.567278869e-03 -7.427716666e+00 -1.749285660e+00 0.000000000e+00 0.000000000e+00 0.000000000e+00 0.000000000e+00
2.550000e+09 -2.741439649e-01 -5.587644778e-03 -7.423956413e+00 -1.755685984e+00 0.000000000e+00 0.000000000e+00 0.000000000e+00 0.000000000e+00
2.560000e+09 -2.741318842e-01 -5.607991411e-03 -7.420181214e+00 -1.762080289e+00 0.000000000e+00 0.000000000e+00 0.000000000e+00 0.000000000e+00
2.570000e+09 -2.741197558e-01 -5.628318675e-03 -7.416391070e+00 -1.768468544e+00 0.000000000e+00 0.000000000e+00 0.000000000e+00 0.000000000e+00
2.580000e+09 -2.741075794e-01 -5.648626475e-03 -7.412585979e+00 -1.774850721e+00 0.000000000e+00 0.000000000e+00 0.000000000e+00 0.000000000e+00
2.590000e+09 -2.740953551e-01 -5.668914716e-03 -7.408765941e+00 -1.781226790e+00 0.000000000e+00 0.000000000e+00 0.000000000e+00 0.000000000e+00
2.600000e+09 -2.740830830e-01 -5.689183306e-03 -7.404930955e+00 -1.787596723e+00 0.000000000e+00 0.000000000e+00 0.000000000e+00 0.000000000e+00
2.610000e+09 -2.740707629e-01 -5.709432148e-03 -7.401081021e+00 -1.793960488e+00 0.000000000e+00 0.000000000e+00 0.000000000e+00 0.000000000e+00
2.620000e+09 -2.740583950e-01 -5.729661149e-03 -7.397216138e+00 -1.800318058e+00 0.000000000e+00 0.000000000e+00 0.000000000e+00 0.000000000e+00
2.630000e+09 -2.740459792e-01 -5.749870212e-03 -7.393336304e+00 -1.806669403e+00 0.000000000e+00 0.000000000e+00 0.000000000e+00 0.000000000e+00
2.640000e+09 -2.740335155e-01 -5.770059244e-03 -7.389441521e+00 -1.813014493e+00 0.000000000e+00 0.000000000e+00 0.000000000e+00 0.000000000e+00
2.650000e+09 -2.740210040e-01 -5.790228148e-03 -7.385531786e+00 -1.819353298e+00 0.000000000e+00 0.000000000e+00 0.000000000e+00 0.000000000e+00
2.660000e+09 -2.740084445e-01 -5.810376829e-03 -7.381607100e+00 -1.825685789e+00 0.000000000e+00 0.000000000e+00 0.000000000e+00 0.000000000e+00
2.670000e+09 -2.739958371e-01 -5.830505191e-03 -7.377667462e+00 -1.832011936e+00 0.000000000e+00 0.000000000e+00 0.000000000e+00 0.000000000e+00
2.680000e+09 -2.739831819e-01 -5.850613138e-03 -7.373712871e+00 -1.838331709e+00 0.000000000e+00 0.000000000e+00 0.000000000e+00 0.000000000e+00
2.690000e+09 -2.739704787e-01 -5.870700573e-03 -7.369743328e+00 -1.844645079e+00 0.000000000e+00 0.000000000e+00 0.000000000e+00 0.000000000e+00
2.700000e+09 -2.739577277e-01 -5.890767401e-03 -7.365758831e+00 -1.850952014e+00 0.000000000e+00 0.000000000e+00 0.000000000e+00 0.000000000e+00
2.710000e+09 -2.739449287e-01 -5.910813525e-03 -7.361759380e+00 -1.857252486e+00 0.000000000e+00 0.000000000e+00 0.000000000e+00 0.000000000e+00
2.720000e+09 -2.739320819e-01 -5.930838847e-03 -7.357744976e+00 -1.863546464e+00 0.000000000e+00 0.000000000e+00 0.000000000e+00 0.000000000e+00
2.730000e+09 -2.739191871e-01 -5.950843272e-03 -7.353715616e+00 -1.869833918e+00 0.000000000e+00 0.000000000e+00 0.000000000e+00 0.000000000e+00
2.740000e+09 -2.739062445e-01 -5.970826701e-03 -7.349671302e+00 -1.876114817e+00 0.000000000e+00 0.000000000e+00 0.000000000e+00 0.000000000e+00
2.750000e+09 -2.738932540e-01 -5.990789038e-03 -7.345612032e+00 -1.882389132e+00 0.000000000e+00 0.000000000e+00 0.000000000e+00 0.000000000e+00
2.760000e+09 -2.738802155e-01 -6.010730184e-03 -7.341537807e+00 -1.888656832e+00 0.000000000e+00 0.000000000e+00 0.000000000e+00 0.000000000e+00
2.770000e+09 -2.738671292e-01 -6.030650042e-03 -7.337448627e+00 -1.894917886e+00 0.000000000e+00 0.000000000e+00 0.000000000e+00 0.000000000e+00
2.780000e+09 -2.738539950e-01 -6.050548513e-03 -7.333344490e+00 -1.901172264e+00 0.000000000e+00 0.000000000e+00 0.000000000e+00 0.000000000e+00
2.790000e+09 -2.738408128e-01 -6.070425500e-03 -7.329225398e+00 -1.907419936e+00 0.000000000e+00 0.000000000e+00 0.000000000e+00 0.000000000e+00
2.800000e+09 -2.738275828e-01 -6.090280904e-03 -7.325091349e+00 -1.913660871e+00 0.000000000e+00 0.000000000e+00 0.000000000e+00 0.000000000e+00
2.810000e+09 -2.738143048e-01 -6.110114627e-03 -7.320942343e+00 -1.919895038e+00 0.000000000e+00 0.000000000e+00 0.000000000e+00 0.000000000e+00
2.820000e+09 -2.738009790e-01 -6.129926569e-03 -7.316778382e+00 -1.926122406e+00 0.000000000e+00 0.000000000e+00 0.000000000e+00 0.000000000e+00
2.830000e+09 -2.737876053e-01 -6.149716631e-03 -7.312599463e+00 -1.932342945e+00 0.000000000e+00 0.000000000e+00 0.000000000e+00 0.000000000e+00
2.840000e+09 -2.737741836e-01 -6.169484715e-03 -7.308405589e+00 -1.938556623e+00 0.000000000e+00 0.000000000e+00 0.000000000e+00 0.000000000e+00
2.850000e+09 -2.737607141e-01 -6.189230720e-03 -7.304196757e+00 -1.944763410e+00 0.000000000e+00 0.000000000e+00 0.000000000e+00 0.000000000e+00
2.860000e+09 -2.737471967e-01 -6.208954548e-03 -7.299972969e+00 -1.950963274e+00 0.000000000e+00 0.000000000e+00 0.000000000e+00 0.000000000e+00
2.870000e+09 -2.737336314e-01 -6.228656097e-03 -7.295734225e+00 -1.957156185e+00 0.000000000e+00 0.000000000e+00 0.000000000e+00 0.000000000e+00
2.880000e+09 -2.737200181e-01 -6.248335268e-03 -7.291480524e+00 -1.963342111e+00 0.000000000e+00 0.000000000e+00 0.000000000e+00 0.000000000e+00
2.890000e+09 -2.737063570e-01 -6.267991961e-03 -7.287211867e+00 -1.969521021e+00 0.000000000e+00 0.000000000e+00 0.000000000e+00 0.000000000e+00
2.900000e+09 -2.736926480e-01 -6.287626075e-03 -7.282928253e+00 -1.975692883e+00 0.000000000e+00 0.000000000e+00 0.000000000e+00 0.000000000e+00
2.910000e+09 -2.736788911e-01 -6.307237509e-03 -7.278629684e+00 -1.981857667e+00 0.000000000e+00 0.000000000e+00 0.000000000e+00 0.000000000e+00
2.920000e+09 -2.736650863e-01 -6.326826163e-03 -7.274316159e+00 -1.988015340e+00 0.000000000e+00 0.000000000e+00 0.000000000e+00 0.000000000e+00
2.930000e+09 -2.736512336e-01 -6.346391934e-03 -7.269987679e+00 -1.994165871e+00 0.000000000e+00 0.000000000e+00 0.000000000e+00 0.000000000e+00
2.940000e+09 -2.736373331e-01 -6.365934723e-03 -7.265644244e+00 -2.000309229e+00 0.000000000e+00 0.000000000e+00 0.000000000e+00 0.000000000e+00
2.950000e+09 -2.736233846e-01 -6.385454426e-03 -7.261285853e+00 -2.006445382e+00 0.000000000e+00 0.000000000e+00 0.000000000e+00 0.000000000e+00
2.960000e+09 -2.736093883e-01 -6.404950943e-03 -7.256912509e+00 -2.012574298e+00 0.000000000e+00 0.000000000e+00 0.000000000e+00 0.000000000e+00
2.970000e+09 -2.735953440e-01 -6.424424171e-03 -7.252524210e+00 -2.018695946e+00 0.000000000e+00 0.000000000e+00 0.000000000e+00 0.000000000e+00
2.980000e+09 -2.735812519e-01 -6.443874007e-03 -7.248120958e+00 -2.024810292e+00 0.000000000e+00 0.000000000e+00 0.000000000e+00 0.000000000e+00
2.990000e+09 -2.735671119e-01 -6.463300351e-03 -7.243702753e+00 -2.030917306e+00 0.000000000e+00 0.000000000e+00 0.000000000e+00 0.000000000e+00
3.000000e+09 -2.735529241e-01 -6.482703098e-03 -7.239269595e+00 -2.037016955e+00 0.000000000e+00 0.000000000e+00 0.000000000e+00 0.000000000e+00
