! rfsim (KiCad + openEMS)
# HZ S RI R 50
5.000000e+08 -6.869726604e-01 1.906532367e-02 -2.084134400e-01 1.042638788e-01 0.000000000e+00 0.000000000e+00 0.000000000e+00 0.000000000e+00
5.100000e+08 -6.870666424e-01 1.943589944e-02 -2.089276855e-01 1.062904282e-01 0.000000000e+00 0.000000000e+00 0.000000000e+00 0.000000000e+00
5.200000e+08 -6.871623897e-01 1.980584876e-02 -2.094515904e-01 1.083135491e-01 0.000000000e+00 0.000000000e+00 0.000000000e+00 0.000000000e+00
5.300000e+08 -6.872598971e-01 2.017516041e-02 -2.099851249e-01 1.103331802e-01 0.000000000e+00 0.000000000e+00 0.000000000e+00 0.000000000e+00
5.400000e+08 -6.873591587e-01 2.054382323e-02 -2.105282585e-01 1.123492603e-01 0.000000000e+00 0.000000000e+00 0.000000000e+00 0.000000000e+00
5.500000e+08 -6.874601691e-01 2.091182611e-02 -2.110809602e-01 1.143617287e-01 0.000000000e+00 0.000000000e+00 0.000000000e+00 0.000000000e+00
5.600000e+08 -6.875629224e-01 2.127915802e-02 -2.116431985e-01 1.163705250e-01 0.000000000e+00 0.000000000e+00 0.000000000e+00 0.000000000e+00
5.700000e+08 -6.876674128e-01 2.164580798e-02 -2.122149414e-01 1.183755891e-01 0.000000000e+00 0.000000000e+00 0.000000000e+00 0.000000000e+00
5.800000e+08 -6.877736344e-01 2.201176507e-02 -2.127961565e-01 1.203768613e-01 0.000000000e+00 0.000000000e+00 0.000000000e+00 0.000000000e+00
5.900000e+08 -6.878815811e-01 2.237701845e-02 -2.133868108e-01 1.223742822e-01 0.000000000e+00 0.000000000e+00 0.000000000e+00 0.000000000e+00
6.000000e+08 -6.879912469e-01 2.274155734e-02 -2.139868708e-01 1.243677928e-01 0.000000000e+00 0.000000000e+00 0.000000000e+00 0.000000000e+00
6.100000e+08 -6.881026255e-01 2.310537101e-02 -2.145963028e-01 1.263573344e-01 0.000000000e+00 0.000000000e+00 0.000000000e+00 0.000000000e+00
6.200000e+08 -6.882157107e-01 2.346844881e-02 -2.152150723e-01 1.283428487e-01 0.000000000e+00 0.000000000e+00 0.000000000e+00 0.000000000e+00
6.300000e+08 -6.883304961e-01 2.383078015e-02 -2.158431444e-01 1.303242779e-01 0.000000000e+00 0.000000000e+00 0.000000000e+00 0.000000000e+00
6.400000e+08 -6.884469753e-01 2.419235453e-02 -2.164804840e-01 1.323015643e-01 0.000000000e+00 0.000000000e+00 0.000000000e+00 0.000000000e+00
6.500000e+08 -6.885651418e-01 2.455316149e-02 -2.171270552e-01 1.342746509e-01 0.000000000e+00 0.000000000e+00 0.000000000e+00 0.000000000e+00
6.600000e+08 -6.886849889e-01 2.491319065e-02 -2.177828219e-01 1.362434807e-01 0.000000000e+00 0.000000000e+00 0.000000000e+00 0.000000000e+00
6.700000e+08 -6.888065099e-01 2.527243172e-02 -2.184477473e-01 1.382079975e-01 0.000000000e+00 0.000000000e+00 0.000000000e+00 0.000000000e+00
6.800000e+08 -6.889296980e-01 2.563087444e-02 -2.191217945e-01 1.401681451e-01 0.000000000e+00 0.000000000e+00 0.000000000e+00 0.000000000e+00
6.900000e+08 -6.890545465e-01 2.598850867e-02 -2.198049259e-01 1.421238681e-01 0.000000000e+00 0.000000000e+00 0.000000000e+00 0.000000000e+00
7.000000e+08 -6.891810483e-01 2.634532431e-02 -2.204971035e-01 1.440751111e-01 0.000000000e+00 0.000000000e+00 0.000000000e+00 0.000000000e+00
7.100000e+08 -6.893091965e-01 2.670131135e-02 -2.211982889e-01 1.460218194e-01 0.000000000e+00 0.000000000e+00 0.000000000e+00 0.000000000e+00
7.200000e+08 -6.894389840e-01 2.705645983e-02 -2.219084435e-01 1.479639385e-01 0.000000000e+00 0.000000000e+00 0.000000000e+00 0.000000000e+00
7.300000e+08 -6.895704036e-01 2.741075990e-02 -2.226275279e-01 1.499014145e-01 0.000000000e+00 0.000000000e+00 0.000000000e+00 0.000000000e+00
7.400000e+08 -6.897034481e-01 2.776420177e-02 -2.233555025e-01 1.518341938e-01 0.000000000e+00 0.000000000e+00 0.000000000e+00 0.000000000e+00
7.500000e+08 -6.898381101e-01 2.811677571e-02 -2.240923273e-01 1.537622233e-01 0.000000000e+00 0.000000000e+00 0.000000000e+00 0.000000000e+00
7.600000e+08 -6.899743823e-01 2.846847210e-02 -2.248379620e-01 1.556854501e-01 0.000000000e+00 0.000000000e+00 0.000000000e+00 0.000000000e+00
7.700000e+08 -6.901122572e-01 2.881928137e-02 -2.255923655e-01 1.576038220e-01 0.000000000e+00 0.000000000e+00 0.000000000e+00 0.000000000e+00
7.800000e+08 -6.902517274e-01 2.916919404e-02 -2.263554968e-01 1.595172872e-01 0.000000000e+00 0.000000000e+00 0.000000000e+00 0.000000000e+00
7.900000e+08 -6.903927851e-01 2.951820071e-02 -2.271273143e-01 1.614257940e-01 0.000000000e+00 0.000000000e+00 0.000000000e+00 0.000000000e+00
8.000000e+08 -6.905354227e-01 2.986629206e-02 -2.279077760e-01 1.633292916e-01 0.000000000e+00 0.000000000e+00 0.000000000e+00 0.000000000e+00
8.100000e+08 -6.906796326e-01 3.021345884e-02 -2.286968394e-01 1.652277294e-01 0.000000000e+00 0.000000000e+00 0.000000000e+00 0.000000000e+00
8.200000e+08 -6.908254068e-01 3.055969189e-02 -2.294944620e-01 1.671210573e-01 0.000000000e+00 0.000000000e+00 0.000000000e+00 0.000000000e+00
8.300000e+08 -6.909727376e-01 3.090498213e-02 -2.303006006e-01 1.690092254e-01 0.000000000e+00 0.000000000e+00 0.000000000e+00 0.000000000e+00
8.400000e+08 -6.911216169e-01 3.124932056e-02 -2.311152119e-01 1.708921847e-01 0.000000000e+00 0.000000000e+00 0.000000000e+00 0.000000000e+00
8.500000e+08 -6.912720369e-01 3.159269826e-02 -2.319382520e-01 1.727698864e-01 0.000000000e+00 0.000000000e+00 0.000000000e+00 0.000000000e+00
8.600000e+08 -6.914239894e-01 3.193510641e-02 -2.327696767e-01 1.746422820e-01 0.000000000e+00 0.000000000e+00 0.000000000e+00 0.000000000e+00
8.700000e+08 -6.915774662e-01 3.227653626e-02 -2.336094417e-01 1.765093237e-01 0.000000000e+00 0.000000000e+00 0.000000000e+00 0.000000000e+00
8.800000e+08 -6.917324594e-01 3.261697912e-02 -2.344575021e-01 1.783709642e-01 0.000000000e+00 0.000000000e+00 0.000000000e+00 0.000000000e+00
8.900000e+08 -6.918889604e-01 3.295642644e-02 -2.353138129e-01 1.802271564e-01 0.000000000e+00 0.000000000e+00 0.000000000e+00 0.000000000e+00
9.000000e+08 -6.920469612e-01 3.329486970e-02 -2.361783284e-01 1.820778539e-01 0.000000000e+00 0.000000000e+00 0.000000000e+00 0.000000000e+00
9.100000e+08 -6.922064533e-01 3.363230050e-02 -2.370510031e-01 1.839230106e-01 0.000000000e+00 0.000000000e+00 0.000000000e+00 0.000000000e+00
9.200000e+08 -6.923674283e-01 3.396871050e-02 -2.379317907e-01 1.857625810e-01 0.000000000e+00 0.000000000e+00 0.000000000e+00 0.000000000e+00
9.300000e+08 -6.925298777e-01 3.430409148e-02 -2.388206449e-01 1.875965200e-01 0.000000000e+00 0.000000000e+00 0.000000000e+00 0.000000000e+00
9.400000e+08 -6.926937930e-01 3.463843528e-02 -2.397175190e-01 1.894247830e-01 0.000000000e+00 0.000000000e+00 0.000000000e+00 0.000000000e+00
9.500000e+08 -6.928591656e-01 3.497173383e-02 -2.406223660e-01 1.912473259e-01 0.000000000e+00 0.000000000e+00 0.000000000e+00 0.000000000e+00
9.600000e+08 -6.930259869e-01 3.530397915e-02 -2.415351387e-01 1.930641051e-01 0.000000000e+00 0.000000000e+00 0.000000000e+00 0.000000000e+00
9.700000e+08 -6.931942482e-01 3.563516335e-02 -2.424557895e-01 1.948750772e-01 0.000000000e+00 0.000000000e+00 0.000000000e+00 0.000000000e+00
9.800000e+08 -6.933639407e-01 3.596527864e-02 -2.433842706e-01 1.966801998e-01 0.000000000e+00 0.000000000e+00 0.000000000e+00 0.000000000e+00
9.900000e+08 -6.935350557e-01 3.629431728e-02 -2.443205337e-01 1.984794305e-01 0.000000000e+00 0.000000000e+00 0.000000000e+00 0.000000000e+00
1.000000e+09 -6.937075843e-01 3.662227167e-02 -2.452645307e-01 2.002727276e-01 0.000000000e+00 0.000000000e+00 0.000000000e+00 0.000000000e+00
1.010000e+09 -6.938815177e-01 3.694913425e-02 -2.462162128e-01 2.020600499e-01 0.000000000e+00 0.000000000e+00 0.000000000e+00 0.000000000e+00
1.020000e+09 -6.940568469e-01 3.727489759e-02 -2.471755312e-01 2.038413567e-01 0.000000000e+00 0.000000000e+00 0.000000000e+00 0.000000000e+00
1.030000e+09 -6.942335629e-01 3.759955433e-02 -2.481424367e-01 2.056166077e-01 0.000000000e+00 0.000000000e+00 0.000000000e+00 0.000000000e+00
1.040000e+09 -6.944116567e-01 3.792309718e-02 -2.491168799e-01 2.073857632e-01 0.000000000e+00 0.000000000e+00 0.000000000e+00 0.000000000e+00
1.050000e+09 -6.945911193e-01 3.824551899e-02 -2.500988113e-01 2.091487838e-01 0.000000000e+00 0.000000000e+00 0.000000000e+00 0.000000000e+00
1.060000e+09 -6.947719415e-01 3.856681266e-02 -2.510881810e-01 2.109056308e-01 0.000000000e+00 0.000000000e+00 0.000000000e+00 0.000000000e+00
1.070000e+09 -6.949541143e-01 3.888697119e-02 -2.520849388e-01 2.126562660e-01 0.000000000e+00 0.000000000e+00 0.000000000e+00 0.000000000e+00
1.080000e+09 -6.951376283e-01 3.920598767e-02 -2.530890346e-01 2.144006514e-01 0.000000000e+00 0.000000000e+00 0.000000000e+00 0.000000000e+00
1.090000e+09 -6.953224745e-01 3.952385529e-02 -2.541004178e-01 2.161387500e-01 0.000000000e+00 0.000000000e+00 0.000000000e+00 0.000000000e+00
1.100000e+09 -6.955086434e-01 3.984056733e-02 -2.551190377e-01 2.178705248e-01 0.000000000e+00 0.000000000e+00 0.000000000e+00 0.000000000e+00
1.110000e+09 -6.956961259e-01 4.015611714e-02 -2.561448434e-01 2.195959396e-01 0.000000000e+00 0.000000000e+00 0.000000000e+00 0.000000000e+00
1.120000e+09 -6.958849125e-01 4.047049820e-02 -2.571777837e-01 2.213149586e-01 0.000000000e+00 0.000000000e+00 0.000000000e+00 0.000000000e+00
1.130000e+09 -6.960749940e-01 4.078370403e-02 -2.582178074e-01 2.230275465e-01 0.000000000e+00 0.000000000e+00 0.000000000e+00 0.000000000e+00
1.140000e+09 -6.962663609e-01 4.109572830e-02 -2.592648630e-01 2.247336686e-01 0.000000000e+00 0.000000000e+00 0.000000000e+00 0.000000000e+00
1.150000e+09 -6.964590037e-01 4.140656473e-02 -2.603188988e-01 2.264332905e-01 0.000000000e+00 0.000000000e+00 0.000000000e+00 0.000000000e+00
1.160000e+09 -6.966529130e-01 4.171620714e-02 -2.613798629e-01 2.281263785e-01 0.000000000e+00 0.000000000e+00 0.000000000e+00 0.000000000e+00
1.170000e+09 -6.968480794e-01 4.202464945e-02 -2.624477034e-01 2.298128993e-01 0.000000000e+00 0.000000000e+00 0.000000000e+00 0.000000000e+00
1.180000e+09 -6.970444931e-01 4.233188567e-02 -2.635223681e-01 2.314928201e-01 0.000000000e+00 0.000000000e+00 0.000000000e+00 0.000000000e+00
1.190000e+09 -6.972421448e-01 4.263790990e-02 -2.646038046e-01 2.331661087e-01 0.000000000e+00 0.000000000e+00 0.000000000e+00 0.000000000e+00
1.200000e+09 -6.974410248e-01 4.294271633e-02 -2.656919604e-01 2.348327333e-01 0.000000000e+00 0.000000000e+00 0.000000000e+00 0.000000000e+00
1.210000e+09 -6.976411235e-01 4.324629925e-02 -2.667867830e-01 2.364926627e-01 0.000000000e+00 0.000000000e+00 0.000000000e+00 0.000000000e+00
1.220000e+09 -6.978424312e-01 4.354865303e-02 -2.678882195e-01 2.381458661e-01 0.000000000e+00 0.000000000e+00 0.000000000e+00 0.000000000e+00
1.230000e+09 -6.980449384e-01 4.384977214e-02 -2.689962171e-01 2.397923132e-01 0.000000000e+00 0.000000000e+00 0.000000000e+00 0.000000000e+00
1.240000e+09 -6.982486352e-01 4.414965115e-02 -2.701107227e-01 2.414319744e-01 0.000000000e+00 0.000000000e+00 0.000000000e+00 0.000000000e+00
1.250000e+09 -6.984535120e-01 4.444828470e-02 -2.712316832e-01 2.430648203e-01 0.000000000e+00 0.000000000e+00 0.000000000e+00 0.000000000e+00
1.260000e+09 -6.986595591e-01 4.474566754e-02 -2.723590453e-01 2.446908223e-01 0.000000000e+00 0.000000000e+00 0.000000000e+00 0.000000000e+00
1.270000e+09 -6.988667667e-01 4.504179451e-02 -2.734927557e-01 2.463099520e-01 0.000000000e+00 0.000000000e+00 0.000000000e+00 0.000000000e+00
1.280000e+09 -6.990751250e-01 4.533666054e-02 -2.746327607e-01 2.479221819e-01 0.000000000e+00 0.000000000e+00 0.000000000e+00 0.000000000e+00
1.290000e+09 -6.992846243e-01 4.563026065e-02 -2.757790069e-01 2.495274847e-01 0.000000000e+00 0.000000000e+00 0.000000000e+00 0.000000000e+00
1.300000e+09 -6.994952547e-01 4.592258995e-02 -2.769314405e-01 2.511258335e-01 0.000000000e+00 0.000000000e+00 0.000000000e+00 0.000000000e+00
1.310000e+09 -6.997070064e-01 4.621364364e-02 -2.780900078e-01 2.527172024e-01 0.000000000e+00 0.000000000e+00 0.000000000e+00 0.000000000e+00
1.320000e+09 -6.999198696e-01 4.650341703e-02 -2.792546549e-01 2.543015654e-01 0.000000000e+00 0.000000000e+00 0.000000000e+00 0.000000000e+00
1.330000e+09 -7.001338344e-01 4.679190550e-02 -2.804253279e-01 2.558788974e-01 0.000000000e+00 0.000000000e+00 0.000000000e+00 0.000000000e+00
1.340000e+09 -7.003488909e-01 4.707910454e-02 -2.816019727e-01 2.574491737e-01 0.000000000e+00 0.000000000e+00 0.000000000e+00 0.000000000e+00
1.350000e+09 -7.005650293e-01 4.736500970e-02 -2.827845353e-01 2.590123701e-01 0.000000000e+00 0.000000000e+00 0.000000000e+00 0.000000000e+00
1.360000e+09 -7.007822397e-01 4.764961666e-02 -2.839729615e-01 2.605684629e-01 0.000000000e+00 0.000000000e+00 0.000000000e+00 0.000000000e+00
1.370000e+09 -7.010005121e-01 4.793292116e-02 -2.851671971e-01 2.621174288e-01 0.000000000e+00 0.000000000e+00 0.000000000e+00 0.000000000e+00
1.380000e+09 -7.012198367e-01 4.821491905e-02 -2.863671879e-01 2.636592451e-01 0.000000000e+00 0.000000000e+00 0.000000000e+00 0.000000000e+00
1.390000e+09 -7.014402035e-01 4.849560627e-02 -2.875728795e-01 2.651938896e-01 0.000000000e+00 0.000000000e+00 0.000000000e+00 0.000000000e+00
1.400000e+09 -7.016616026e-01 4.877497883e-02 -2.887842176e-01 2.667213405e-01 0.000000000e+00 0.000000000e+00 0.000000000e+00 0.000000000e+00
1.410000e+09 -7.018840241e-01 4.905303285e-02 -2.900011479e-01 2.682415767e-01 0.000000000e+00 0.000000000e+00 0.000000000e+00 0.000000000e+00
1.420000e+09 -7.021074580e-01 4.932976454e-02 -2.912236158e-01 2.697545774e-01 0.000000000e+00 0.000000000e+00 0.000000000e+00 0.000000000e+00
1.430000e+09 -7.023318943e-01 4.960517019e-02 -2.924515669e-01 2.712603223e-01 0.000000000e+00 0.000000000e+00 0.000000000e+00 0.000000000e+00
1.440000e+09 -7.025573232e-01 4.987924619e-02 -2.936849469e-01 2.727587917e-01 0.000000000e+00 0.000000000e+00 0.000000000e+00 0.000000000e+00
1.450000e+09 -7.027837346e-01 5.015198900e-02 -2.949237011e-01 2.742499663e-01 0.000000000e+00 0.000000000e+00 0.000000000e+00 0.000000000e+00
1.460000e+09 -7.030111187e-01 5.042339520e-02 -2.961677751e-01 2.757338273e-01 0.000000000e+00 0.000000000e+00 0.000000000e+00 0.000000000e+00
1.470000e+09 -7.032394654e-01 5.069346142e-02 -2.974171145e-01 2.772103564e-01 0.000000000e+00 0.000000000e+00 0.000000000e+00 0.000000000e+00
1.480000e+09 -7.034687647e-01 5.096218441e-02 -2.986716646e-01 2.786795358e-01 0.000000000e+00 0.000000000e+00 0.000000000e+00 0.000000000e+00
1.490000e+09 -7.036990068e-01 5.122956100e-02 -2.999313709e-01 2.801413482e-01 0.000000000e+00 0.000000000e+00 0.000000000e+00 0.000000000e+00
1.500000e+09 -7.039301817e-01 5.149558810e-02 -3.011961791e-01 2.815957767e-01 0.000000000e+00 0.000000000e+00 0.000000000e+00 0.000000000e+00
1.510000e+09 -7.041622794e-01 5.176026272e-02 -3.024660345e-01 2.830428049e-01 0.000000000e+00 0.000000000e+00 0.000000000e+00 0.000000000e+00
1.520000e+09 -7.043952899e-01 5.202358194e-02 -3.037408828e-01 2.844824170e-01 0.000000000e+00 0.000000000e+00 0.000000000e+00 0.000000000e+00
1.530000e+09 -7.046292033e-01 5.228554294e-02 -3.050206694e-01 2.859145974e-01 0.000000000e+00 0.000000000e+00 0.000000000e+00 0.000000000e+00
1.540000e+09 -7.048640097e-01 5.254614298e-02 -3.063053400e-01 2.873393314e-01 0.000000000e+00 0.000000000e+00 0.000000000e+00 0.000000000e+00
1.550000e+09 -7.050996991e-01 5.280537942e-02 -3.075948401e-01 2.887566043e-01 0.000000000e+00 0.000000000e+00 0.000000000e+00 0.000000000e+00
1.560000e+09 -7.053362617e-01 5.306324969e-02 -3.088891154e-01 2.901664023e-01 0.000000000e+00 0.000000000e+00 0.000000000e+00 0.000000000e+00
1.570000e+09 -7.055736873e-01 5.331975131e-02 -3.101881116e-01 2.915687117e-01 0.000000000e+00 0.000000000e+00 0.000000000e+00 0.000000000e+00
1.580000e+09 -7.058119663e-01 5.357488189e-02 -3.114917745e-01 2.929635195e-01 0.000000000e+00 0.000000000e+00 0.000000000e+00 0.000000000e+00
1.590000e+09 -7.060510885e-01 5.382863912e-02 -3.128000497e-01 2.943508130e-01 0.000000000e+00 0.000000000e+00 0.000000000e+00 0.000000000e+00
1.600000e+09 -7.062910442e-01 5.408102077e-02 -3.141128831e-01 2.957305802e-01 0.000000000e+00 0.000000000e+00 0.000000000e+00 0.000000000e+00
1.610000e+09 -7.065318235e-01 5.433202471e-02 -3.154302207e-01 2.971028094e-01 0.000000000e+00 0.000000000e+00 0.000000000e+00 0.000000000e+00
1.620000e+09 -7.067734164e-01 5.458164887e-02 -3.167520083e-01 2.984674893e-01 0.000000000e+00 0.000000000e+00 0.000000000e+00 0.000000000e+00
1.630000e+09 -7.070158132e-01 5.482989129e-02 -3.180781919e-01 2.998246091e-01 0.000000000e+00 0.000000000e+00 0.000000000e+00 0.000000000e+00
1.640000e+09 -7.072590038e-01 5.507675006e-02 -3.194087178e-01 3.011741586e-01 0.000000000e+00 0.000000000e+00 0.000000000e+00 0.000000000e+00
1.650000e+09 -7.075029787e-01 5.532222340e-02 -3.207435319e-01 3.025161279e-01 0.000000000e+00 0.000000000e+00 0.000000000e+00 0.000000000e+00
1.660000e+09 -7.077477278e-01 5.556630955e-02 -3.220825806e-01 3.038505075e-01 0.000000000e+00 0.000000000e+00 0.000000000e+00 0.000000000e+00
1.670000e+09 -7.079932413e-01 5.580900690e-02 -3.234258102e-01 3.051772885e-01 0.000000000e+00 0.000000000e+00 0.000000000e+00 0.000000000e+00
1.680000e+09 -7.082395096e-01 5.605031385e-02 -3.247731670e-01 3.064964623e-01 0.000000000e+00 0.000000000e+00 0.000000000e+00 0.000000000e+00
1.690000e+09 -7.084865228e-01 5.629022895e-02 -3.261245976e-01 3.078080209e-01 0.000000000e+00 0.000000000e+00 0.000000000e+00 0.000000000e+00
1.700000e+09 -7.087342711e-01 5.652875077e-02 -3.274800487e-01 3.091119567e-01 0.000000000e+00 0.000000000e+00 0.000000000e+00 0.000000000e+00
1.710000e+09 -7.089827448e-01 5.676587801e-02 -3.288394667e-01 3.104082623e-01 0.000000000e+00 0.000000000e+00 0.000000000e+00 0.000000000e+00
1.720000e+09 -7.092319342e-01 5.700160941e-02 -3.302027987e-01 3.116969310e-01 0.000000000e+00 0.000000000e+00 0.000000000e+00 0.000000000e+00
1.730000e+09 -7.094818296e-01 5.723594380e-02 -3.315699914e-01 3.129779566e-01 0.000000000e+00 0.000000000e+00 0.000000000e+00 0.000000000e+00
1.740000e+09 -7.097324213e-01 5.746888011e-02 -3.329409918e-01 3.142513329e-01 0.000000000e+00 0.000000000e+00 0.000000000e+00 0.000000000e+00
1.750000e+09 -7.099836996e-01 5.770041732e-02 -3.343157472e-01 3.155170547e-01 0.000000000e+00 0.000000000e+00 0.000000000e+00 0.000000000e+00
1.760000e+09 -7.102356549e-01 5.793055450e-02 -3.356942047e-01 3.167751167e-01 0.000000000e+00 0.000000000e+00 0.000000000e+00 0.000000000e+00
1.770000e+09 -7.104882775e-01 5.815929079e-02 -3.370763117e-01 3.180255143e-01 0.000000000e+00 0.000000000e+00 0.000000000e+00 0.000000000e+00
1.780000e+09 -7.107415579e-01 5.838662542e-02 -3.384620157e-01 3.192682434e-01 0.000000000e+00 0.000000000e+00 0.000000000e+00 0.000000000e+00
1.790000e+09 -7.109954865e-01 5.861255768e-02 -3.398512642e-01 3.205033000e-01 0.000000000e+00 0.000000000e+00 0.000000000e+00 0.000000000e+00
1.800000e+09 -7.112500538e-01 5.883708695e-02 -3.412440052e-01 3.217306808e-01 0.000000000e+00 0.000000000e+00 0.000000000e+00 0.000000000e+00
1.810000e+09 -7.115052502e-01 5.906021267e-02 -3.426401863e-01 3.229503828e-01 0.000000000e+00 0.000000000e+00 0.000000000e+00 0.000000000e+00
1.820000e+09 -7.117610662e-01 5.928193436e-02 -3.440397558e-01 3.241624034e-01 0.000000000e+00 0.000000000e+00 0.000000000e+00 0.000000000e+00
1.830000e+09 -7.120174923e-01 5.950225162e-02 -3.454426616e-01 3.253667403e-01 0.000000000e+00 0.000000000e+00 0.000000000e+00 0.000000000e+00
1.840000e+09 -7.122745191e-01 5.972116411e-02 -3.468488521e-01 3.265633919e-01 0.000000000e+00 0.000000000e+00 0.000000000e+00 0.000000000e+00
1.850000e+09 -7.125321372e-01 5.993867158e-02 -3.482582759e-01 3.277523566e-01 0.000000000e+00 0.000000000e+00 0.000000000e+00 0.000000000e+00
1.860000e+09 -7.127903372e-01 6.015477384e-02 -3.496708814e-01 3.289336336e-01 0.000000000e+00 0.000000000e+00 0.000000000e+00 0.000000000e+00
1.870000e+09 -7.130491096e-01 6.036947077e-02 -3.510866174e-01 3.301072222e-01 0.000000000e+00 0.000000000e+00 0.000000000e+00 0.000000000e+00
1.880000e+09 -7.133084453e-01 6.058276233e-02 -3.525054330e-01 3.312731222e-01 0.000000000e+00 0.000000000e+00 0.000000000e+00 0.000000000e+00
1.890000e+09 -7.135683348e-01 6.079464854e-02 -3.539272770e-01 3.324313337e-01 0.000000000e+00 0.000000000e+00 0.000000000e+00 0.000000000e+00
1.900000e+09 -7.138287689e-01 6.100512951e-02 -3.553520989e-01 3.335818574e-01 0.000000000e+00 0.000000000e+00 0.000000000e+00 0.000000000e+00
1.910000e+09 -7.140897384e-01 6.121420539e-02 -3.567798479e-01 3.347246941e-01 0.000000000e+00 0.000000000e+00 0.000000000e+00 0.000000000e+00
1.920000e+09 -7.143512339e-01 6.142187642e-02 -3.582104738e-01 3.358598451e-01 0.000000000e+00 0.000000000e+00 0.000000000e+00 0.000000000e+00
1.930000e+09 -7.146132464e-01 6.162814290e-02 -3.596439261e-01 3.369873122e-01 0.000000000e+00 0.000000000e+00 0.000000000e+00 0.000000000e+00
1.940000e+09 -7.148757667e-01 6.183300520e-02 -3.610801549e-01 3.381070973e-01 0.000000000e+00 0.000000000e+00 0.000000000e+00 0.000000000e+00
1.950000e+09 -7.151387857e-01 6.203646375e-02 -3.625191103e-01 3.392192030e-01 0.000000000e+00 0.000000000e+00 0.000000000e+00 0.000000000e+00
1.960000e+09 -7.154022942e-01 6.223851907e-02 -3.639607425e-01 3.403236319e-01 0.000000000e+00 0.000000000e+00 0.000000000e+00 0.000000000e+00
1.970000e+09 -7.156662833e-01 6.243917172e-02 -3.654050021e-01 3.414203872e-01 0.000000000e+00 0.000000000e+00 0.000000000e+00 0.000000000e+00
1.980000e+09 -7.159307439e-01 6.263842234e-02 -3.668518396e-01 3.425094724e-01 0.000000000e+00 0.000000000e+00 0.000000000e+00 0.000000000e+00
1.990000e+09 -7.161956670e-01 6.283627161e-02 -3.683012059e-01 3.435908913e-01 0.000000000e+00 0.000000000e+00 0.000000000e+00 0.000000000e+00
2.000000e+09 -7.164610436e-01 6.303272032e-02 -3.697530521e-01 3.446646483e-01 0.000000000e+00 0.000000000e+00 0.000000000e+00 0.000000000e+00
2.010000e+09 -7.167268649e-01 6.322776928e-02 -3.712073293e-01 3.457307477e-01 0.000000000e+00 0.000000000e+00 0.000000000e+00 0.000000000e+00
2.020000e+09 -7.169931220e-01 6.342141939e-02 -3.726639891e-01 3.467891945e-01 0.000000000e+00 0.000000000e+00 0.000000000e+00 0.000000000e+00
2.030000e+09 -7.172598060e-01 6.361367159e-02 -3.741229829e-01 3.478399940e-01 0.000000000e+00 0.000000000e+00 0.000000000e+00 0.000000000e+00
2.040000e+09 -7.175269081e-01 6.380452691e-02 -3.755842627e-01 3.488831517e-01 0.000000000e+00 0.000000000e+00 0.000000000e+00 0.000000000e+00
2.050000e+09 -7.177944196e-01 6.399398641e-02 -3.770477805e-01 3.499186735e-01 0.000000000e+00 0.000000000e+00 0.000000000e+00 0.000000000e+00
2.060000e+09 -7.180623317e-01 6.418205124e-02 -3.785134885e-01 3.509465657e-01 0.000000000e+00 0.000000000e+00 0.000000000e+00 0.000000000e+00
2.070000e+09 -7.183306357e-01 6.436872259e-02 -3.799813391e-01 3.519668348e-01 0.000000000e+00 0.000000000e+00 0.000000000e+00 0.000000000e+00
2.080000e+09 -7.185993229e-01 6.455400171e-02 -3.814512850e-01 3.529794878e-01 0.000000000e+00 0.000000000e+00 0.000000000e+00 0.000000000e+00
2.090000e+09 -7.188683848e-01 6.473788992e-02 -3.829232790e-01 3.539845318e-01 0.000000000e+00 0.000000000e+00 0.000000000e+00 0.000000000e+00
2.100000e+09 -7.191378128e-01 6.492038860e-02 -3.843972742e-01 3.549819743e-01 0.000000000e+00 0.000000000e+00 0.000000000e+00 0.000000000e+00
2.110000e+09 -7.194075983e-01 6.510149917e-02 -3.858732239e-01 3.559718233e-01 0.000000000e+00 0.000000000e+00 0.000000000e+00 0.000000000e+00
2.120000e+09 -7.196777328e-01 6.528122312e-02 -3.873510816e-01 3.569540868e-01 0.000000000e+00 0.000000000e+00 0.000000000e+00 0.000000000e+00
2.130000e+09 -7.199482079e-01 6.545956199e-02 -3.888308010e-01 3.579287734e-01 0.000000000e+00 0.000000000e+00 0.000000000e+00 0.000000000e+00
2.140000e+09 -7.202190151e-01 6.563651739e-02 -3.903123361e-01 3.588958919e-01 0.000000000e+00 0.000000000e+00 0.000000000e+00 0.000000000e+00
2.150000e+09 -7.204901461e-01 6.581209097e-02 -3.917956410e-01 3.598554512e-01 0.000000000e+00 0.000000000e+00 0.000000000e+00 0.000000000e+00
2.160000e+09 -7.207615925e-01 6.598628444e-02 -3.932806702e-01 3.608074608e-01 0.000000000e+00 0.000000000e+00 0.000000000e+00 0.000000000e+00
2.170000e+09 -7.210333461e-01 6.615909956e-02 -3.947673781e-01 3.617519303e-01 0.000000000e+00 0.000000000e+00 0.000000000e+00 0.000000000e+00
2.180000e+09 -7.213053985e-01 6.633053815e-02 -3.962557198e-01 3.626888698e-01 0.000000000e+00 0.000000000e+00 0.000000000e+00 0.000000000e+00
2.190000e+09 -7.215777416e-01 6.650060208e-02 -3.977456502e-01 3.636182894e-01 0.000000000e+00 0.000000000e+00 0.000000000e+00 0.000000000e+00
2.200000e+09 -7.218503671e-01 6.666929327e-02 -3.992371246e-01 3.645401997e-01 0.000000000e+00 0.000000000e+00 0.000000000e+00 0.000000000e+00
2.210000e+09 -7.221232670e-01 6.683661369e-02 -4.007300987e-01 3.654546114e-01 0.000000000e+00 0.000000000e+00 0.000000000e+00 0.000000000e+00
2.220000e+09 -7.223964332e-01 6.700256537e-02 -4.022245281e-01 3.663615358e-01 0.000000000e+00 0.000000000e+00 0.000000000e+00 0.000000000e+00
2.230000e+09 -7.226698576e-01 6.716715038e-02 -4.037203689e-01 3.672609842e-01 0.000000000e+00 0.000000000e+00 0.000000000e+00 0.000000000e+00
2.240000e+09 -7.229435323e-01 6.733037085e-02 -4.052175773e-01 3.681529681e-01 0.000000000e+00 0.000000000e+00 0.000000000e+00 0.000000000e+00
2.250000e+09 -7.232174492e-01 6.749222895e-02 -4.067161099e-01 3.690374996e-01 0.000000000e+00 0.000000000e+00 0.000000000e+00 0.000000000e+00
2.260000e+09 -7.234916004e-01 6.765272691e-02 -4.082159232e-01 3.699145908e-01 0.000000000e+00 0.000000000e+00 0.000000000e+00 0.000000000e+00
2.270000e+09 -7.237659782e-01 6.781186698e-02 -4.097169744e-01 3.707842541e-01 0.000000000e+00 0.000000000e+00 0.000000000e+00 0.000000000e+00
2.280000e+09 -7.240405746e-01 6.796965150e-02 -4.112192205e-01 3.716465022e-01 0.000000000e+00 0.000000000e+00 0.000000000e+00 0.000000000e+00
2.290000e+09 -7.243153819e-01 6.812608282e-02 -4.127226192e-01 3.725013482e-01 0.000000000e+00 0.000000000e+00 0.000000000e+00 0.000000000e+00
2.300000e+09 -7.245903924e-01 6.828116336e-02 -4.142271279e-01 3.733488051e-01 0.000000000e+00 0.000000000e+00 0.000000000e+00 0.000000000e+00
2.310000e+09 -7.248655983e-01 6.843489557e-02 -4.157327048e-01 3.741888864e-01 0.000000000e+00 0.000000000e+00 0.000000000e+00 0.000000000e+00
2.320000e+09 -7.251409921e-01 6.858728195e-02 -4.172393079e-01 3.750216059e-01 0.000000000e+00 0.000000000e+00 0.000000000e+00 0.000000000e+00
2.330000e+09 -7.254165660e-01 6.873832505e-02 -4.187468957e-01 3.758469775e-01 0.000000000e+00 0.000000000e+00 0.000000000e+00 0.000000000e+00
2.340000e+09 -7.256923126e-01 6.888802745e-02 -4.202554269e-01 3.766650154e-01 0.000000000e+00 0.000000000e+00 0.000000000e+00 0.000000000e+00
2.350000e+09 -7.259682244e-01 6.903639179e-02 -4.217648604e-01 3.774757339e-01 0.000000000e+00 0.000000000e+00 0.000000000e+00 0.000000000e+00
2.360000e+09 -7.262442939e-01 6.918342074e-02 -4.232751555e-01 3.782791477e-01 0.000000000e+00 0.000000000e+00 0.000000000e+00 0.000000000e+00
2.370000e+09 -7.265205136e-01 6.932911702e-02 -4.247862715e-01 3.790752718e-01 0.000000000e+00 0.000000000e+00 0.000000000e+00 0.000000000e+00
2.380000e+09 -7.267968762e-01 6.947348339e-02 -4.262981681e-01 3.798641212e-01 0.000000000e+00 0.000000000e+00 0.000000000e+00 0.000000000e+00
2.390000e+09 -7.270733744e-01 6.961652264e-02 -4.278108053e-01 3.806457112e-01 0.000000000e+00 0.000000000e+00 0.000000000e+00 0.000000000e+00
2.400000e+09 -7.273500009e-01 6.975823762e-02 -4.293241432e-01 3.814200573e-01 0.000000000e+00 0.000000000e+00 0.000000000e+00 0.000000000e+00
2.410000e+09 -7.276267485e-01 6.989863119e-02 -4.308381424e-01 3.821871755e-01 0.000000000e+00 0.000000000e+00 0.000000000e+00 0.000000000e+00
2.420000e+09 -7.279036099e-01 7.003770629e-02 -4.323527635e-01 3.829470815e-01 0.000000000e+00 0.000000000e+00 0.000000000e+00 0.000000000e+00
2.430000e+09 -7.281805781e-01 7.017546587e-02 -4.338679674e-01 3.836997917e-01 0.000000000e+00 0.000000000e+00 0.000000000e+00 0.000000000e+00
2.440000e+09 -7.284576459e-01 7.031191291e-02 -4.353837155e-01 3.844453223e-01 0.000000000e+00 0.000000000e+00 0.000000000e+00 0.000000000e+00
2.450000e+09 -7.287348064e-01 7.044705045e-02 -4.368999691e-01 3.851836900e-01 0.000000000e+00 0.000000000e+00 0.000000000e+00 0.000000000e+00
2.460000e+09 -7.290120524e-01 7.058088156e-02 -4.384166901e-01 3.859149117e-01 0.000000000e+00 0.000000000e+00 0.000000000e+00 0.000000000e+00
2.470000e+09 -7.292893771e-01 7.071340935e-02 -4.399338403e-01 3.866390042e-01 0.000000000e+00 0.000000000e+00 0.000000000e+00 0.000000000e+00
2.480000e+09 -7.295667736e-01 7.084463694e-02 -4.414513821e-01 3.873559848e-01 0.000000000e+00 0.000000000e+00 0.000000000e+00 0.000000000e+00
2.490000e+09 -7.298442349e-01 7.097456752e-02 -4.429692779e-01 3.880658708e-01 0.000000000e+00 0.000000000e+00 0.000000000e+00 0.000000000e+00
2.500000e+09 -7.301217544e-01 7.110320429e-02 -4.444874905e-01 3.887686799e-01 0.000000000e+00 0.000000000e+00 0.000000000e+00 0.000000000e+00
2.510000e+09 -7.303993251e-01 7.123055050e-02 -4.460059830e-01 3.894644298e-01 0.000000000e+00 0.000000000e+00 0.000000000e+00 0.000000000e+00
2.520000e+09 -7.306769405e-01 7.135660943e-02 -4.475247187e-01 3.901531383e-01 0.000000000e+00 0.000000000e+00 0.000000000e+00 0.000000000e+00
2.530000e+09 -7.309545939e-01 7.148138437e-02 -4.490436610e-01 3.908348237e-01 0.000000000e+00 0.000000000e+00 0.000000000e+00 0.000000000e+00
2.540000e+09 -7.312322785e-01 7.160487868e-02 -4.505627738e-01 3.915095042e-01 0.000000000e+00 0.000000000e+00 0.000000000e+00 0.000000000e+00
2.550000e+09 -7.315099880e-01 7.172709572e-02 -4.520820211e-01 3.921771982e-01 0.000000000e+00 0.000000000e+00 0.000000000e+00 0.000000000e+00
2.560000e+09 -7.317877156e-01 7.184803890e-02 -4.536013674e-01 3.928379245e-01 0.000000000e+00 0.000000000e+00 0.000000000e+00 0.000000000e+00
2.570000e+09 -7.320654551e-01 7.196771165e-02 -4.551207771e-01 3.934917018e-01 0.000000000e+00 0.000000000e+00 0.000000000e+00 0.000000000e+00
2.580000e+09 -7.323431998e-01 7.208611744e-02 -4.566402152e-01 3.941385490e-01 0.000000000e+00 0.000000000e+00 0.000000000e+00 0.000000000e+00
2.590000e+09 -7.326209436e-01 7.220325976e-02 -4.581596467e-01 3.947784854e-01 0.000000000e+00 0.000000000e+00 0.000000000e+00 0.000000000e+00
2.600000e+09 -7.328986799e-01 7.231914213e-02 -4.596790371e-01 3.954115301e-01 0.000000000e+00 0.000000000e+00 0.000000000e+00 0.000000000e+00
2.610000e+09 -7.331764026e-01 7.243376811e-02 -4.611983519e-01 3.960377026e-01 0.000000000e+00 0.000000000e+00 0.000000000e+00 0.000000000e+00
2.620000e+09 -7.334541054e-01 7.254714127e-02 -4.627175571e-01 3.966570225e-01 0.000000000e+00 0.000000000e+00 0.000000000e+00 0.000000000e+00
2.630000e+09 -7.337317821e-01 7.265926521e-02 -4.642366188e-01 3.972695095e-01 0.000000000e+00 0.000000000e+00 0.000000000e+00 0.000000000e+00
2.640000e+09 -7.340094266e-01 7.277014357e-02 -4.657555035e-01 3.978751836e-01 0.000000000e+00 0.000000000e+00 0.000000000e+00 0.000000000e+00
2.650000e+09 -7.342870328e-01 7.287978002e-02 -4.672741779e-01 3.984740647e-01 0.000000000e+00 0.000000000e+00 0.000000000e+00 0.000000000e+00
2.660000e+09 -7.345645946e-01 7.298817822e-02 -4.687926088e-01 3.990661730e-01 0.000000000e+00 0.000000000e+00 0.000000000e+00 0.000000000e+00
2.670000e+09 -7.348421061e-01 7.309534191e-02 -4.703107635e-01 3.996515289e-01 0.000000000e+00 0.000000000e+00 0.000000000e+00 0.000000000e+00
2.680000e+09 -7.351195613e-01 7.320127479e-02 -4.718286095e-01 4.002301527e-01 0.000000000e+00 0.000000000e+00 0.000000000e+00 0.000000000e+00
2.690000e+09 -7.353969543e-01 7.330598065e-02 -4.733461145e-01 4.008020650e-01 0.000000000e+00 0.000000000e+00 0.000000000e+00 0.000000000e+00
2.700000e+09 -7.356742792e-01 7.340946325e-02 -4.748632465e-01 4.013672865e-01 0.000000000e+00 0.000000000e+00 0.000000000e+00 0.000000000e+00
2.710000e+09 -7.359515302e-01 7.351172641e-02 -4.763799738e-01 4.019258381e-01 0.000000000e+00 0.000000000e+00 0.000000000e+00 0.000000000e+00
2.720000e+09 -7.362287017e-01 7.361277395e-02 -4.778962648e-01 4.024777408e-01 0.000000000e+00 0.000000000e+00 0.000000000e+00 0.000000000e+00
2.730000e+09 -7.365057877e-01 7.371260973e-02 -4.794120884e-01 4.030230155e-01 0.000000000e+00 0.000000000e+00 0.000000000e+00 0.000000000e+00
2.740000e+09 -7.367827829e-01 7.381123761e-02 -4.809274135e-01 4.035616834e-01 0.000000000e+00 0.000000000e+00 0.000000000e+00 0.000000000e+00
2.750000e+09 -7.370596813e-01 7.390866149e-02 -4.824422095e-01 4.040937660e-01 0.000000000e+00 0.000000000e+00 0.000000000e+00 0.000000000e+00
2.760000e+09 -7.373364777e-01 7.400488527e-02 -4.839564460e-01 4.046192846e-01 0.000000000e+00 0.000000000e+00 0.000000000e+00 0.000000000e+00
2.770000e+09 -7.376131663e-01 7.409991291e-02 -4.854700926e-01 4.051382606e-01 0.000000000e+00 0.000000000e+00 0.000000000e+00 0.000000000e+00
2.780000e+09 -7.378897417e-01 7.419374835e-02 -4.869831196e-01 4.056507159e-01 0.000000000e+00 0.000000000e+00 0.000000000e+00 0.000000000e+00
2.790000e+09 -7.381661986e-01 7.428639555e-02 -4.884954972e-01 4.061566721e-01 0.000000000e+00 0.000000000e+00 0.000000000e+00 0.000000000e+00
2.800000e+09 -7.384425314e-01 7.437785853e-02 -4.900071960e-01 4.066561510e-01 0.000000000e+00 0.000000000e+00 0.000000000e+00 0.000000000e+00
2.810000e+09 -7.387187350e-01 7.446814127e-02 -4.915181869e-01 4.071491746e-01 0.000000000e+00 0.000000000e+00 0.000000000e+00 0.000000000e+00
2.820000e+09 -7.389948040e-01 7.455724782e-02 -4.930284409e-01 4.076357650e-01 0.000000000e+00 0.000000000e+00 0.000000000e+00 0.000000000e+00
2.830000e+09 -7.392707331e-01 7.464518222e-02 -4.945379295e-01 4.081159442e-01 0.000000000e+00 0.000000000e+00 0.000000000e+00 0.000000000e+00
2.840000e+09 -7.395465172e-01 7.473194853e-02 -4.960466241e-01 4.085897346e-01 0.000000000e+00 0.000000000e+00 0.000000000e+00 0.000000000e+00
2.850000e+09 -7.398221511e-01 7.481755082e-02 -4.975544968e-01 4.090571584e-01 0.000000000e+00 0.000000000e+00 0.000000000e+00 0.000000000e+00
2.860000e+09 -7.400976298e-01 7.490199320e-02 -4.990615196e-01 4.095182380e-01 0.000000000e+00 0.000000000e+00 0.000000000e+00 0.000000000e+00
2.870000e+09 -7.403729481e-01 7.498527978e-02 -5.005676649e-01 4.099729960e-01 0.000000000e+00 0.000000000e+00 0.000000000e+00 0.000000000e+00
2.880000e+09 -7.406481011e-01 7.506741467e-02 -5.020729053e-01 4.104214549e-01 0.000000000e+00 0.000000000e+00 0.000000000e+00 0.000000000e+00
2.890000e+09 -7.409230839e-01 7.514840202e-02 -5.035772137e-01 4.108636373e-01 0.000000000e+00 0.000000000e+00 0.000000000e+00 0.000000000e+00
2.900000e+09 -7.411978914e-01 7.522824599e-02 -5.050805633e-01 4.112995660e-01 0.000000000e+00 0.000000000e+00 0.000000000e+00 0.000000000e+00
2.910000e+09 -7.414725188e-01 7.530695073e-02 -5.065829274e-01 4.117292638e-01 0.000000000e+00 0.000000000e+00 0.000000000e+00 0.000000000e+00
2.920000e+09 -7.417469614e-01 7.538452044e-02 -5.080842796e-01 4.121527537e-01 0.000000000e+00 0.000000000e+00 0.000000000e+00 0.000000000e+00
2.930000e+09 -7.420212143e-01 7.546095931e-02 -5.095845939e-01 4.125700584e-01 0.000000000e+00 0.000000000e+00 0.000000000e+00 0.000000000e+00
2.940000e+09 -7.422952728e-01 7.553627153e-02 -5.110838444e-01 4.129812011e-01 0.000000000e+00 0.000000000e+00 0.000000000e+00 0.000000000e+00
2.950000e+09 -7.425691322e-01 7.561046135e-02 -5.125820054e-01 4.133862049e-01 0.000000000e+00 0.000000000e+00 0.000000000e+00 0.000000000e+00
2.960000e+09 -7.428427879e-01 7.568353297e-02 -5.140790516e-01 4.137850928e-01 0.000000000e+00 0.000000000e+00 0.000000000e+00 0.000000000e+00
2.970000e+09 -7.431162353e-01 7.575549065e-02 -5.155749579e-01 4.141778881e-01 0.000000000e+00 0.000000000e+00 0.000000000e+00 0.000000000e+00
2.980000e+09 -7.433894698e-01 7.582633864e-02 -5.170696993e-01 4.145646141e-01 0.000000000e+00 0.000000000e+00 0.000000000e+00 0.000000000e+00
2.990000e+09 -7.436624869e-01 7.589608120e-02 -5.185632514e-01 4.149452941e-01 0.000000000e+00 0.000000000e+00 0.000000000e+00 0.000000000e+00
3.000000e+09 -7.439352822e-01 7.596472261e-02 -5.200555896e-01 4.153199515e-01 0.000000000e+00 0.000000000e+00 0.000000000e+00 0.000000000e+00
