! rfsim (KiCad + openEMS)
# HZ S RI R 50
5.000000e+08 -9.967514836e-01 5.829032465e-02 1.491738082e-03 1.598565670e-02 1.463765015e-03 1.596634506e-02 -9.975583524e-01 5.616436811e-02
5.100000e+08 -9.966338824e-01 5.946176631e-02 1.545823174e-03 1.631080372e-02 1.518845113e-03 1.629297842e-02 -9.974668857e-01 5.729685981e-02
5.200000e+08 -9.965140892e-01 6.063307360e-02 1.600951590e-03 1.663635441e-02 1.575045348e-03 1.661989782e-02 -9.973736277e-01 5.842900609e-02
5.300000e+08 -9.963921211e-01 6.180428448e-02 1.657128744e-03 1.696232534e-02 1.632362262e-03 1.694712009e-02 -9.972786158e-01 5.956083887e-02
5.400000e+08 -9.962679927e-01 6.297543846e-02 1.714360475e-03 1.728873316e-02 1.690793197e-03 1.727466258e-02 -9.971818846e-01 6.069239237e-02
5.500000e+08 -9.961417165e-01 6.414657627e-02 1.772653037e-03 1.761559453e-02 1.750336291e-03 1.760254305e-02 -9.970834663e-01 6.182370289e-02
5.600000e+08 -9.960133031e-01 6.531773968e-02 1.832013092e-03 1.794292614e-02 1.810990470e-03 1.793077966e-02 -9.969833904e-01 6.295480844e-02
5.700000e+08 -9.958827606e-01 6.648897121e-02 1.892447698e-03 1.827074465e-02 1.872755435e-03 1.825939086e-02 -9.968816842e-01 6.408574857e-02
5.800000e+08 -9.957500955e-01 6.766031397e-02 1.953964300e-03 1.859906667e-02 1.935631649e-03 1.858839535e-02 -9.967783723e-01 6.521656405e-02
5.900000e+08 -9.956153118e-01 6.883181140e-02 2.016570718e-03 1.892790875e-02 1.999620326e-03 1.891781203e-02 -9.966734770e-01 6.634729669e-02
6.000000e+08 -9.954784120e-01 7.000350716e-02 2.080275136e-03 1.925728735e-02 2.064723410e-03 1.924765996e-02 -9.965670184e-01 6.747798910e-02
6.100000e+08 -9.953393965e-01 7.117544488e-02 2.145086089e-03 1.958721882e-02 2.130943561e-03 1.957795828e-02 -9.964590141e-01 6.860868453e-02
6.200000e+08 -9.951982640e-01 7.234766808e-02 2.211012453e-03 1.991771939e-02 2.198284135e-03 1.990872620e-02 -9.963494797e-01 6.973942664e-02
6.300000e+08 -9.950550114e-01 7.352021996e-02 2.278063431e-03 2.024880514e-02 2.266749163e-03 2.023998293e-02 -9.962384284e-01 7.087025938e-02
6.400000e+08 -9.949096340e-01 7.469314333e-02 2.346248544e-03 2.058049201e-02 2.336343334e-03 2.057174766e-02 -9.961258714e-01 7.200122681e-02
6.500000e+08 -9.947621254e-01 7.586648046e-02 2.415577611e-03 2.091279576e-02 2.407071970e-03 2.090403955e-02 -9.960118180e-01 7.313237295e-02
6.600000e+08 -9.946124778e-01 7.704027297e-02 2.486060748e-03 2.124573198e-02 2.478941010e-03 2.123687766e-02 -9.958962754e-01 7.426374167e-02
6.700000e+08 -9.944606819e-01 7.821456175e-02 2.557708345e-03 2.157931608e-02 2.551956984e-03 2.157028092e-02 -9.957792490e-01 7.539537659e-02
6.800000e+08 -9.943067271e-01 7.938938690e-02 2.630531061e-03 2.191356326e-02 2.626126993e-03 2.190426816e-02 -9.956607425e-01 7.652732090e-02
6.900000e+08 -9.941506014e-01 8.056478759e-02 2.704539807e-03 2.224848853e-02 2.701458688e-03 2.223885802e-02 -9.955407576e-01 7.765961737e-02
7.000000e+08 -9.939922917e-01 8.174080205e-02 2.779745738e-03 2.258410669e-02 2.777960248e-03 2.257406897e-02 -9.954192945e-01 7.879230816e-02
7.100000e+08 -9.938317835e-01 8.291746752e-02 2.856160241e-03 2.292043234e-02 2.855640359e-03 2.290991930e-02 -9.952963520e-01 7.992543481e-02
7.200000e+08 -9.936690616e-01 8.409482016e-02 2.933794922e-03 2.325747985e-02 2.934508193e-03 2.324642708e-02 -9.951719271e-01 8.105903816e-02
7.300000e+08 -9.935041095e-01 8.527289503e-02 3.012661596e-03 2.359526338e-02 3.014573386e-03 2.358361013e-02 -9.950460155e-01 8.219315825e-02
7.400000e+08 -9.933369098e-01 8.645172609e-02 3.092772277e-03 2.393379690e-02 3.095846019e-03 2.392148607e-02 -9.949186115e-01 8.332783431e-02
7.500000e+08 -9.931674443e-01 8.763134613e-02 3.174139169e-03 2.427309413e-02 3.178336599e-03 2.426007226e-02 -9.947897083e-01 8.446310473e-02
7.600000e+08 -9.929956940e-01 8.881178677e-02 3.256774651e-03 2.461316860e-02 3.262056036e-03 2.459938581e-02 -9.946592976e-01 8.559900694e-02
7.700000e+08 -9.928216390e-01 8.999307845e-02 3.340691277e-03 2.495403362e-02 3.347015628e-03 2.493944356e-02 -9.945273702e-01 8.673557748e-02
7.800000e+08 -9.926452588e-01 9.117525043e-02 3.425901760e-03 2.529570229e-02 3.433227042e-03 2.528026212e-02 -9.943939155e-01 8.787285189e-02
7.900000e+08 -9.924665323e-01 9.235833077e-02 3.512418964e-03 2.563818752e-02 3.520702294e-03 2.562185780e-02 -9.942589223e-01 8.901086476e-02
8.000000e+08 -9.922854378e-01 9.354234637e-02 3.600255903e-03 2.598150201e-02 3.609453734e-03 2.596424666e-02 -9.941223782e-01 9.014964964e-02
8.100000e+08 -9.921019530e-01 9.472732292e-02 3.689425724e-03 2.632565827e-02 3.699494032e-03 2.630744449e-02 -9.939842698e-01 9.128923910e-02
8.200000e+08 -9.919160553e-01 9.591328499e-02 3.779941710e-03 2.667066863e-02 3.790836157e-03 2.665146682e-02 -9.938445832e-01 9.242966468e-02
8.300000e+08 -9.917277214e-01 9.710025596e-02 3.871817268e-03 2.701654522e-02 3.883493367e-03 2.699632890e-02 -9.937033033e-01 9.357095692e-02
8.400000e+08 -9.915369279e-01 9.828825811e-02 3.965065924e-03 2.736330001e-02 3.977479190e-03 2.734204574e-02 -9.935604147e-01 9.471314532e-02
8.500000e+08 -9.913436508e-01 9.947731261e-02 4.059701320e-03 2.771094480e-02 4.072807418e-03 2.768863208e-02 -9.934159010e-01 9.585625841e-02
8.600000e+08 -9.911478660e-01 1.006674396e-01 4.155737210e-03 2.805949123e-02 4.169492088e-03 2.803610242e-02 -9.932697454e-01 9.700032367e-02
8.700000e+08 -9.909495491e-01 1.018586580e-01 4.253187451e-03 2.840895079e-02 4.267547471e-03 2.838447098e-02 -9.931219304e-01 9.814536765e-02
8.800000e+08 -9.907486754e-01 1.030509860e-01 4.352066007e-03 2.875933483e-02 4.366988063e-03 2.873375179e-02 -9.929724381e-01 9.929141589e-02
8.900000e+08 -9.905452201e-01 1.042444405e-01 4.452386941e-03 2.911065456e-02 4.467828575e-03 2.908395860e-02 -9.928212500e-01 1.004384930e-01
9.000000e+08 -9.903391581e-01 1.054390377e-01 4.554164415e-03 2.946292106e-02 4.570083920e-03 2.943510497e-02 -9.926683471e-01 1.015866226e-01
9.100000e+08 -9.901304643e-01 1.066347927e-01 4.657412685e-03 2.981614532e-02 4.673769207e-03 2.978720421e-02 -9.925137102e-01 1.027358275e-01
9.200000e+08 -9.899191134e-01 1.078317198e-01 4.762146105e-03 3.017033818e-02 4.778899733e-03 3.014026944e-02 -9.923573197e-01 1.038861296e-01
9.300000e+08 -9.897050802e-01 1.090298325e-01 4.868379122e-03 3.052551043e-02 4.885490974e-03 3.049431357e-02 -9.921991555e-01 1.050375498e-01
9.400000e+08 -9.894883393e-01 1.102291434e-01 4.976126278e-03 3.088167273e-02 4.993558577e-03 3.084934933e-02 -9.920391975e-01 1.061901083e-01
9.500000e+08 -9.892688651e-01 1.114296645e-01 5.085402209e-03 3.123883570e-02 5.103118358e-03 3.120538925e-02 -9.918774250e-01 1.073438245e-01
9.600000e+08 -9.890466323e-01 1.126314068e-01 5.196221645e-03 3.159700985e-02 5.214186294e-03 3.156244569e-02 -9.917138172e-01 1.084987170e-01
9.700000e+08 -9.888216155e-01 1.138343809e-01 5.308599414e-03 3.195620565e-02 5.326778519e-03 3.192053085e-02 -9.915483534e-01 1.096548036e-01
9.800000e+08 -9.885937890e-01 1.150385966e-01 5.422550440e-03 3.231643354e-02 5.440911318e-03 3.227965677e-02 -9.913810122e-01 1.108121014e-01
9.900000e+08 -9.883631276e-01 1.162440632e-01 5.538089750e-03 3.267770387e-02 5.556601128e-03 3.263983536e-02 -9.912117725e-01 1.119706268e-01
1.000000e+09 -9.881296059e-01 1.174507893e-01 5.655232469e-03 3.304002701e-02 5.673864530e-03 3.300107837e-02 -9.910406128e-01 1.131303956e-01
1.010000e+09 -9.878931984e-01 1.186587830e-01 5.773993832e-03 3.340341327e-02 5.792718249e-03 3.336339744e-02 -9.908675115e-01 1.142914230e-01
1.020000e+09 -9.876538798e-01 1.198680522e-01 5.894389177e-03 3.376787296e-02 5.913179156e-03 3.372680411e-02 -9.906924471e-01 1.154537235e-01
1.030000e+09 -9.874116249e-01 1.210786039e-01 6.016433959e-03 3.413341639e-02 6.035264261e-03 3.409130979e-02 -9.905153978e-01 1.166173110e-01
1.040000e+09 -9.871664085e-01 1.222904451e-01 6.140143747e-03 3.450005386e-02 6.158990714e-03 3.445692580e-02 -9.903363420e-01 1.177821991e-01
1.050000e+09 -9.869182053e-01 1.235035822e-01 6.265534231e-03 3.486779569e-02 6.284375809e-03 3.482366340e-02 -9.901552577e-01 1.189484007e-01
1.060000e+09 -9.866669903e-01 1.247180213e-01 6.392621225e-03 3.523665222e-02 6.411436978e-03 3.519153373e-02 -9.899721231e-01 1.201159282e-01
1.070000e+09 -9.864127384e-01 1.259337683e-01 6.521420674e-03 3.560663383e-02 6.540191800e-03 3.556054792e-02 -9.897869165e-01 1.212847938e-01
1.080000e+09 -9.861554246e-01 1.271508288e-01 6.651948660e-03 3.597775091e-02 6.670657994e-03 3.593071699e-02 -9.895996159e-01 1.224550091e-01
1.090000e+09 -9.858950239e-01 1.283692081e-01 6.784221404e-03 3.635001391e-02 6.802853427e-03 3.630205195e-02 -9.894101995e-01 1.236265854e-01
1.100000e+09 -9.856315114e-01 1.295889114e-01 6.918255276e-03 3.672343334e-02 6.936796114e-03 3.667456377e-02 -9.892186454e-01 1.247995335e-01
1.110000e+09 -9.853648622e-01 1.308099438e-01 7.054066798e-03 3.709801976e-02 7.072504221e-03 3.704826338e-02 -9.890249316e-01 1.259738642e-01
1.120000e+09 -9.850950515e-01 1.320323101e-01 7.191672653e-03 3.747378379e-02 7.209996069e-03 3.742316169e-02 -9.888290365e-01 1.271495877e-01
1.130000e+09 -9.848220544e-01 1.332560152e-01 7.331089691e-03 3.785073613e-02 7.349290134e-03 3.779926961e-02 -9.886309381e-01 1.283267141e-01
1.140000e+09 -9.845458461e-01 1.344810638e-01 7.472334934e-03 3.822888757e-02 7.490405059e-03 3.817659805e-02 -9.884306147e-01 1.295052533e-01
1.150000e+09 -9.842664017e-01 1.357074606e-01 7.615425587e-03 3.860824897e-02 7.633359649e-03 3.855515792e-02 -9.882280445e-01 1.306852149e-01
1.160000e+09 -9.839836965e-01 1.369352104e-01 7.760379042e-03 3.898883129e-02 7.778172881e-03 3.893496015e-02 -9.880232056e-01 1.318666084e-01
1.170000e+09 -9.836977055e-01 1.381643179e-01 7.907212887e-03 3.937064558e-02 7.924863910e-03 3.931601568e-02 -9.878160764e-01 1.330494431e-01
1.180000e+09 -9.834084039e-01 1.393947879e-01 8.055944916e-03 3.975370301e-02 8.073452069e-03 3.969833549e-02 -9.876066351e-01 1.342337282e-01
1.190000e+09 -9.831157667e-01 1.406266252e-01 8.206593132e-03 4.013801484e-02 8.223956880e-03 4.008193061e-02 -9.873948601e-01 1.354194728e-01
1.200000e+09 -9.828197690e-01 1.418598347e-01 8.359175761e-03 4.052359245e-02 8.376398056e-03 4.046681210e-02 -9.871807295e-01 1.366066859e-01
1.210000e+09 -9.825203856e-01 1.430944216e-01 8.513711255e-03 4.091044735e-02 8.530795513e-03 4.085299107e-02 -9.869642219e-01 1.377953765e-01
1.220000e+09 -9.822175915e-01 1.443303910e-01 8.670218307e-03 4.129859116e-02 8.687169368e-03 4.124047870e-02 -9.867453154e-01 1.389855535e-01
1.230000e+09 -9.819113613e-01 1.455677482e-01 8.828715853e-03 4.168803563e-02 8.845539953e-03 4.162928623e-02 -9.865239885e-01 1.401772258e-01
1.240000e+09 -9.816016697e-01 1.468064989e-01 8.989223086e-03 4.207879264e-02 9.005927818e-03 4.201942497e-02 -9.863002194e-01 1.413704024e-01
1.250000e+09 -9.812884912e-01 1.480466486e-01 9.151759463e-03 4.247087422e-02 9.168353741e-03 4.241090631e-02 -9.860739865e-01 1.425650923e-01
1.260000e+09 -9.809718000e-01 1.492882034e-01 9.316344712e-03 4.286429252e-02 9.332838734e-03 4.280374172e-02 -9.858452681e-01 1.437613044e-01
1.270000e+09 -9.806515704e-01 1.505311693e-01 9.482998849e-03 4.325905984e-02 9.499404049e-03 4.319794277e-02 -9.856140425e-01 1.449590478e-01
1.280000e+09 -9.803277763e-01 1.517755528e-01 9.651742177e-03 4.365518863e-02 9.668071190e-03 4.359352111e-02 -9.853802879e-01 1.461583318e-01
1.290000e+09 -9.800003915e-01 1.530213604e-01 9.822595306e-03 4.405269147e-02 9.838861919e-03 4.399048849e-02 -9.851439826e-01 1.473591655e-01
1.300000e+09 -9.796693896e-01 1.542685990e-01 9.995579154e-03 4.445158111e-02 1.001179826e-02 4.438885677e-02 -9.849051047e-01 1.485615584e-01
1.310000e+09 -9.793347437e-01 1.555172759e-01 1.017071496e-02 4.485187045e-02 1.018690252e-02 4.478863792e-02 -9.846636323e-01 1.497655200e-01
1.320000e+09 -9.789964271e-01 1.567673983e-01 1.034802430e-02 4.525357253e-02 1.036419729e-02 4.518984402e-02 -9.844195435e-01 1.509710600e-01
1.330000e+09 -9.786544125e-01 1.580189741e-01 1.052752910e-02 4.565670056e-02 1.054370544e-02 4.559248726e-02 -9.841728162e-01 1.521781881e-01
1.340000e+09 -9.783086723e-01 1.592720112e-01 1.070925161e-02 4.606126791e-02 1.072545016e-02 4.599657997e-02 -9.839234284e-01 1.533869145e-01
1.350000e+09 -9.779591786e-01 1.605265180e-01 1.089321446e-02 4.646728810e-02 1.090945494e-02 4.640213458e-02 -9.836713577e-01 1.545972492e-01
1.360000e+09 -9.776059034e-01 1.617825030e-01 1.107944067e-02 4.687477481e-02 1.109574358e-02 4.680916366e-02 -9.834165820e-01 1.558092028e-01
1.370000e+09 -9.772488181e-01 1.630399753e-01 1.126795362e-02 4.728374188e-02 1.128434025e-02 4.721767991e-02 -9.831590787e-01 1.570227858e-01
1.380000e+09 -9.768878938e-01 1.642989440e-01 1.145877709e-02 4.769420332e-02 1.147526942e-02 4.762769617e-02 -9.828988252e-01 1.582380090e-01
1.390000e+09 -9.765231011e-01 1.655594187e-01 1.165193527e-02 4.810617331e-02 1.166855594e-02 4.803922540e-02 -9.826357989e-01 1.594548835e-01
1.400000e+09 -9.761544104e-01 1.668214093e-01 1.184745277e-02 4.851966616e-02 1.186422499e-02 4.845228070e-02 -9.823699769e-01 1.606734206e-01
1.410000e+09 -9.757817915e-01 1.680849260e-01 1.204535461e-02 4.893469637e-02 1.206230215e-02 4.886687534e-02 -9.821013360e-01 1.618936319e-01
1.420000e+09 -9.754052139e-01 1.693499794e-01 1.224566626e-02 4.935127859e-02 1.226281336e-02 4.928302269e-02 -9.818298532e-01 1.631155292e-01
1.430000e+09 -9.750246465e-01 1.706165802e-01 1.244841365e-02 4.976942764e-02 1.246578499e-02 4.970073630e-02 -9.815555049e-01 1.643391245e-01
1.440000e+09 -9.746400576e-01 1.718847397e-01 1.265362316e-02 5.018915849e-02 1.267124376e-02 5.012002984e-02 -9.812782674e-01 1.655644301e-01
1.450000e+09 -9.742514154e-01 1.731544692e-01 1.286132164e-02 5.061048628e-02 1.287921685e-02 5.054091714e-02 -9.809981171e-01 1.667914588e-01
1.460000e+09 -9.738586870e-01 1.744257807e-01 1.307153643e-02 5.103342629e-02 1.308973185e-02 5.096341219e-02 -9.807150297e-01 1.680202234e-01
1.470000e+09 -9.734618395e-01 1.756986861e-01 1.328429537e-02 5.145799397e-02 1.330281678e-02 5.138752910e-02 -9.804289809e-01 1.692507372e-01
1.480000e+09 -9.730608391e-01 1.769731979e-01 1.349962679e-02 5.188420492e-02 1.351850013e-02 5.181328216e-02 -9.801399461e-01 1.704830135e-01
1.490000e+09 -9.726556514e-01 1.782493289e-01 1.371755956e-02 5.231207490e-02 1.373681083e-02 5.224068578e-02 -9.798479004e-01 1.717170662e-01
1.500000e+09 -9.722462416e-01 1.795270918e-01 1.393812307e-02 5.274161982e-02 1.395777830e-02 5.266975455e-02 -9.795528186e-01 1.729529093e-01
1.510000e+09 -9.718325741e-01 1.808065002e-01 1.416134726e-02 5.317285572e-02 1.418143244e-02 5.310050320e-02 -9.792546753e-01 1.741905574e-01
1.520000e+09 -9.714146127e-01 1.820875674e-01 1.438726262e-02 5.360579881e-02 1.440780365e-02 5.353294659e-02 -9.789534445e-01 1.754300250e-01
1.530000e+09 -9.709923206e-01 1.833703073e-01 1.461590021e-02 5.404046542e-02 1.463692283e-02 5.396709976e-02 -9.786491001e-01 1.766713271e-01
1.540000e+09 -9.705656601e-01 1.846547341e-01 1.484729168e-02 5.447687204e-02 1.486882142e-02 5.440297788e-02 -9.783416157e-01 1.779144791e-01
1.550000e+09 -9.701345932e-01 1.859408620e-01 1.508146927e-02 5.491503529e-02 1.510353140e-02 5.484059628e-02 -9.780309642e-01 1.791594967e-01
1.560000e+09 -9.696990806e-01 1.872287055e-01 1.531846580e-02 5.535497191e-02 1.534108528e-02 5.527997042e-02 -9.777171185e-01 1.804063956e-01
1.570000e+09 -9.692590828e-01 1.885182796e-01 1.555831475e-02 5.579669878e-02 1.558151614e-02 5.572111592e-02 -9.774000509e-01 1.816551923e-01
1.580000e+09 -9.688145592e-01 1.898095991e-01 1.580105021e-02 5.624023292e-02 1.582485765e-02 5.616404853e-02 -9.770797332e-01 1.829059031e-01
1.590000e+09 -9.683654685e-01 1.911026794e-01 1.604670691e-02 5.668559144e-02 1.607114405e-02 5.660878417e-02 -9.767561368e-01 1.841585451e-01
1.600000e+09 -9.679117686e-01 1.923975359e-01 1.629532025e-02 5.713279158e-02 1.632041021e-02 5.705533885e-02 -9.764292329e-01 1.854131354e-01
1.610000e+09 -9.674534167e-01 1.936941841e-01 1.654692629e-02 5.758185070e-02 1.657269161e-02 5.750372877e-02 -9.760989918e-01 1.866696914e-01
1.620000e+09 -9.669903689e-01 1.949926398e-01 1.680156179e-02 5.803278627e-02 1.682802434e-02 5.795397022e-02 -9.757653837e-01 1.879282310e-01
1.630000e+09 -9.665225807e-01 1.962929189e-01 1.705926420e-02 5.848561583e-02 1.708644517e-02 5.840607966e-02 -9.754283781e-01 1.891887723e-01
1.640000e+09 -9.660500066e-01 1.975950375e-01 1.732007167e-02 5.894035705e-02 1.734799152e-02 5.886007363e-02 -9.750879440e-01 1.904513335e-01
1.650000e+09 -9.655726000e-01 1.988990117e-01 1.758402310e-02 5.939702767e-02 1.761270149e-02 5.931596885e-02 -9.747440499e-01 1.917159335e-01
1.660000e+09 -9.650903138e-01 2.002048579e-01 1.785115811e-02 5.985564553e-02 1.788061386e-02 5.977378211e-02 -9.743966636e-01 1.929825912e-01
1.670000e+09 -9.646030997e-01 2.015125923e-01 1.812151709e-02 6.031622854e-02 1.815176814e-02 6.023353035e-02 -9.740457524e-01 1.942513259e-01
1.680000e+09 -9.641109083e-01 2.028222315e-01 1.839514118e-02 6.077879467e-02 1.842620456e-02 6.069523060e-02 -9.736912832e-01 1.955221570e-01
1.690000e+09 -9.636136897e-01 2.041337918e-01 1.867207231e-02 6.124336198e-02 1.870396407e-02 6.115890002e-02 -9.733332220e-01 1.967951045e-01
1.700000e+09 -9.631113925e-01 2.054472899e-01 1.895235322e-02 6.170994856e-02 1.898508841e-02 6.162455585e-02 -9.729715342e-01 1.980701883e-01
1.710000e+09 -9.626039646e-01 2.067627423e-01 1.923602744e-02 6.217857258e-02 1.926962006e-02 6.209221543e-02 -9.726061848e-01 1.993474290e-01
1.720000e+09 -9.620913527e-01 2.080801655e-01 1.952313935e-02 6.264925222e-02 1.955760232e-02 6.256189620e-02 -9.722371378e-01 2.006268470e-01
1.730000e+09 -9.615735025e-01 2.093995761e-01 1.981373414e-02 6.312200572e-02 1.984907928e-02 6.303361568e-02 -9.718643567e-01 2.019084633e-01
1.740000e+09 -9.610503588e-01 2.107209905e-01 2.010785790e-02 6.359685134e-02 2.014409585e-02 6.350739146e-02 -9.714878042e-01 2.031922989e-01
1.750000e+09 -9.605218651e-01 2.120444251e-01 2.040555755e-02 6.407380735e-02 2.044269780e-02 6.398324123e-02 -9.711074423e-01 2.044783752e-01
1.760000e+09 -9.599879637e-01 2.133698963e-01 2.070688092e-02 6.455289203e-02 2.074493174e-02 6.446118270e-02 -9.707232324e-01 2.057667138e-01
1.770000e+09 -9.594485962e-01 2.146974203e-01 2.101187674e-02 6.503412368e-02 2.105084517e-02 6.494123368e-02 -9.703351347e-01 2.070573364e-01
1.780000e+09 -9.589037025e-01 2.160270133e-01 2.132059466e-02 6.551752055e-02 2.136048647e-02 6.542341200e-02 -9.699431091e-01 2.083502651e-01
1.790000e+09 -9.583532219e-01 2.173586911e-01 2.163308526e-02 6.600310091e-02 2.167390497e-02 6.590773554e-02 -9.695471144e-01 2.096455220e-01
1.800000e+09 -9.577970921e-01 2.186924696e-01 2.194940008e-02 6.649088299e-02 2.199115089e-02 6.639422221e-02 -9.691471085e-01 2.109431296e-01
1.810000e+09 -9.572352499e-01 2.200283643e-01 2.226959161e-02 6.698088496e-02 2.231227544e-02 6.688288995e-02 -9.687430487e-01 2.122431103e-01
1.820000e+09 -9.566676306e-01 2.213663906e-01 2.259371334e-02 6.747312495e-02 2.263733076e-02 6.737375671e-02 -9.683348913e-01 2.135454869e-01
1.830000e+09 -9.560941685e-01 2.227065637e-01 2.292181976e-02 6.796762105e-02 2.296637002e-02 6.786684044e-02 -9.679225915e-01 2.148502822e-01
1.840000e+09 -9.555147965e-01 2.240488983e-01 2.325396637e-02 6.846439123e-02 2.329944739e-02 6.836215908e-02 -9.675061038e-01 2.161575194e-01
1.850000e+09 -9.549294463e-01 2.253934091e-01 2.359020971e-02 6.896345341e-02 2.363661806e-02 6.885973055e-02 -9.670853818e-01 2.174672214e-01
1.860000e+09 -9.543380484e-01 2.267401103e-01 2.393060736e-02 6.946482540e-02 2.397793827e-02 6.935957275e-02 -9.666603780e-01 2.187794117e-01
1.870000e+09 -9.537405319e-01 2.280890158e-01 2.427521798e-02 6.996852489e-02 2.432346536e-02 6.986170353e-02 -9.662310438e-01 2.200941134e-01
1.880000e+09 -9.531368245e-01 2.294401391e-01 2.462410132e-02 7.047456946e-02 2.467325774e-02 7.036614069e-02 -9.657973298e-01 2.214113501e-01
1.890000e+09 -9.525268528e-01 2.307934932e-01 2.497731822e-02 7.098297654e-02 2.502737493e-02 7.087290196e-02 -9.653591855e-01 2.227311453e-01
1.900000e+09 -9.519105418e-01 2.321490910e-01 2.533493065e-02 7.149376340e-02 2.538587761e-02 7.138200498e-02 -9.649165593e-01 2.240535225e-01
1.910000e+09 -9.512878153e-01 2.335069446e-01 2.569700172e-02 7.200694715e-02 2.574882760e-02 7.189346730e-02 -9.644693984e-01 2.253785053e-01
1.920000e+09 -9.506585955e-01 2.348670658e-01 2.606359569e-02 7.252254473e-02 2.611628791e-02 7.240730638e-02 -9.640176491e-01 2.267061173e-01
1.930000e+09 -9.500228035e-01 2.362294658e-01 2.643477801e-02 7.304057286e-02 2.648832275e-02 7.292353951e-02 -9.635612564e-01 2.280363822e-01
1.940000e+09 -9.493803588e-01 2.375941553e-01 2.681061531e-02 7.356104806e-02 2.686499755e-02 7.344218387e-02 -9.631001642e-01 2.293693234e-01
1.950000e+09 -9.487311794e-01 2.389611444e-01 2.719117545e-02 7.408398661e-02 2.724637901e-02 7.396325647e-02 -9.626343153e-01 2.307049647e-01
1.960000e+09 -9.480751820e-01 2.403304426e-01 2.757652750e-02 7.460940454e-02 2.763253506e-02 7.448677415e-02 -9.621636510e-01 2.320433295e-01
1.970000e+09 -9.474122817e-01 2.417020588e-01 2.796674180e-02 7.513731762e-02 2.802353498e-02 7.501275354e-02 -9.616881118e-01 2.333844412e-01
1.980000e+09 -9.467423922e-01 2.430760012e-01 2.836188995e-02 7.566774134e-02 2.841944933e-02 7.554121107e-02 -9.612076365e-01 2.347283231e-01
1.990000e+09 -9.460654255e-01 2.444522773e-01 2.876204486e-02 7.620069088e-02 2.882035004e-02 7.607216293e-02 -9.607221629e-01 2.360749985e-01
2.000000e+09 -9.453812925e-01 2.458308939e-01 2.916728073e-02 7.673618110e-02 2.922631037e-02 7.660562505e-02 -9.602316274e-01 2.374244903e-01
2.010000e+09 -9.446899021e-01 2.472118569e-01 2.957767308e-02 7.727422651e-02 2.963740502e-02 7.714161310e-02 -9.597359650e-01 2.387768216e-01
2.020000e+09 -9.439911619e-01 2.485951715e-01 2.999329881e-02 7.781484129e-02 3.005371008e-02 7.768014244e-02 -9.592351094e-01 2.401320149e-01
2.030000e+09 -9.432849778e-01 2.499808423e-01 3.041423616e-02 7.835803920e-02 3.047530308e-02 7.822122810e-02 -9.587289928e-01 2.414900928e-01
2.040000e+09 -9.425712543e-01 2.513688726e-01 3.084056479e-02 7.890383361e-02 3.090226303e-02 7.876488478e-02 -9.582175462e-01 2.428510776e-01
2.050000e+09 -9.418498941e-01 2.527592650e-01 3.127236575e-02 7.945223747e-02 3.133467044e-02 7.931112682e-02 -9.577006989e-01 2.442149911e-01
2.060000e+09 -9.411207984e-01 2.541520213e-01 3.170972152e-02 8.000326328e-02 3.177260732e-02 7.985996813e-02 -9.571783790e-01 2.455818550e-01
2.070000e+09 -9.403838667e-01 2.555471421e-01 3.215271604e-02 8.055692306e-02 3.221615724e-02 8.041142225e-02 -9.566505128e-01 2.469516908e-01
2.080000e+09 -9.396389969e-01 2.569446271e-01 3.260143473e-02 8.111322833e-02 3.266540533e-02 8.096550221e-02 -9.561170253e-01 2.483245194e-01
2.090000e+09 -9.388860852e-01 2.583444751e-01 3.305596448e-02 8.167219012e-02 3.312043833e-02 8.152222062e-02 -9.555778398e-01 2.497003614e-01
2.100000e+09 -9.381250261e-01 2.597466834e-01 3.351639373e-02 8.223381889e-02 3.358134460e-02 8.208158955e-02 -9.550328782e-01 2.510792370e-01
2.110000e+09 -9.373557125e-01 2.611512487e-01 3.398281242e-02 8.279812452e-02 3.404821415e-02 8.264362054e-02 -9.544820606e-01 2.524611659e-01
2.120000e+09 -9.365780355e-01 2.625581661e-01 3.445531208e-02 8.336511630e-02 3.452113866e-02 8.320832457e-02 -9.539253055e-01 2.538461675e-01
2.130000e+09 -9.357918845e-01 2.639674299e-01 3.493398581e-02 8.393480292e-02 3.500021154e-02 8.377571200e-02 -9.533625299e-01 2.552342604e-01
2.140000e+09 -9.349971472e-01 2.653790328e-01 3.541892831e-02 8.450719238e-02 3.548552790e-02 8.434579258e-02 -9.527936490e-01 2.566254628e-01
2.150000e+09 -9.341937094e-01 2.667929665e-01 3.591023591e-02 8.508229201e-02 3.597718463e-02 8.491857536e-02 -9.522185762e-01 2.580197925e-01
2.160000e+09 -9.333814554e-01 2.682092213e-01 3.640800659e-02 8.566010844e-02 3.647528041e-02 8.549406872e-02 -9.516372234e-01 2.594172662e-01
2.170000e+09 -9.325602674e-01 2.696277861e-01 3.691233998e-02 8.624064755e-02 3.697991572e-02 8.607228026e-02 -9.510495004e-01 2.608179005e-01
2.180000e+09 -9.317300261e-01 2.710486484e-01 3.742333744e-02 8.682391445e-02 3.749119288e-02 8.665321684e-02 -9.504553156e-01 2.622217108e-01
2.190000e+09 -9.308906101e-01 2.724717945e-01 3.794110202e-02 8.740991344e-02 3.800921609e-02 8.723688447e-02 -9.498545752e-01 2.636287122e-01
2.200000e+09 -9.300418964e-01 2.738972090e-01 3.846573852e-02 8.799864797e-02 3.853409143e-02 8.782328830e-02 -9.492471838e-01 2.650389187e-01
2.210000e+09 -9.291837601e-01 2.753248750e-01 3.899735349e-02 8.859012066e-02 3.906592693e-02 8.841243259e-02 -9.486330442e-01 2.664523436e-01
2.220000e+09 -9.283160743e-01 2.767547741e-01 3.953605529e-02 8.918433320e-02 3.960483255e-02 8.900432064e-02 -9.480120571e-01 2.678689993e-01
2.230000e+09 -9.274387105e-01 2.781868864e-01 4.008195408e-02 8.978128632e-02 4.015092022e-02 8.959895478e-02 -9.473841213e-01 2.692888974e-01
2.240000e+09 -9.265515380e-01 2.796211902e-01 4.063516184e-02 9.038097982e-02 4.070430390e-02 9.019633628e-02 -9.467491338e-01 2.707120485e-01
2.250000e+09 -9.256544245e-01 2.810576623e-01 4.119579244e-02 9.098341246e-02 4.126509955e-02 9.079646533e-02 -9.461069896e-01 2.721384621e-01
2.260000e+09 -9.247472356e-01 2.824962776e-01 4.176396160e-02 9.158858195e-02 4.183342522e-02 9.139934101e-02 -9.454575817e-01 2.735681467e-01
2.270000e+09 -9.238298350e-01 2.839370095e-01 4.233978697e-02 9.219648493e-02 4.240940101e-02 9.200496118e-02 -9.448008010e-01 2.750011098e-01
2.280000e+09 -9.229020844e-01 2.853798292e-01 4.292338813e-02 9.280711690e-02 4.299314916e-02 9.261332250e-02 -9.441365365e-01 2.764373576e-01
2.290000e+09 -9.219638438e-01 2.868247065e-01 4.351488662e-02 9.342047219e-02 4.358479404e-02 9.322442033e-02 -9.434646751e-01 2.778768954e-01
2.300000e+09 -9.210149710e-01 2.882716091e-01 4.411440595e-02 9.403654394e-02 4.418446217e-02 9.383824868e-02 -9.427851017e-01 2.793197269e-01
2.310000e+09 -9.200553218e-01 2.897205027e-01 4.472207166e-02 9.465532402e-02 4.479228226e-02 9.445480017e-02 -9.420976990e-01 2.807658548e-01
2.320000e+09 -9.190847501e-01 2.911713511e-01 4.533801131e-02 9.527680303e-02 4.540838524e-02 9.507406598e-02 -9.414023477e-01 2.822152803e-01
2.330000e+09 -9.181031078e-01 2.926241161e-01 4.596235453e-02 9.590097021e-02 4.603290428e-02 9.569603576e-02 -9.406989262e-01 2.836680031e-01
2.340000e+09 -9.171102446e-01 2.940787576e-01 4.659523304e-02 9.652781343e-02 4.666597479e-02 9.632069760e-02 -9.399873111e-01 2.851240218e-01
2.350000e+09 -9.161060084e-01 2.955352330e-01 4.723678067e-02 9.715731915e-02 4.730773449e-02 9.694803795e-02 -9.392673764e-01 2.865833332e-01
2.360000e+09 -9.150902449e-01 2.969934980e-01 4.788713340e-02 9.778947233e-02 4.795832339e-02 9.757804156e-02 -9.385389944e-01 2.880459325e-01
2.370000e+09 -9.140627976e-01 2.984535057e-01 4.854642937e-02 9.842425641e-02 4.861788383e-02 9.821069144e-02 -9.378020348e-01 2.895118136e-01
2.380000e+09 -9.130235082e-01 2.999152073e-01 4.921480893e-02 9.906165329e-02 4.928656052e-02 9.884596876e-02 -9.370563654e-01 2.909809684e-01
2.390000e+09 -9.119722160e-01 3.013785516e-01 4.989241464e-02 9.970164322e-02 4.996450050e-02 9.948385279e-02 -9.363018517e-01 2.924533872e-01
2.400000e+09 -9.109087584e-01 3.028434849e-01 5.057939135e-02 1.003442048e-01 5.065185325e-02 1.001243209e-01 -9.355383570e-01 2.939290586e-01
2.410000e+09 -9.098329705e-01 3.043099514e-01 5.127588616e-02 1.009893149e-01 5.134877064e-02 1.007673483e-01 -9.347657422e-01 2.954079691e-01
2.420000e+09 -9.087446852e-01 3.057778928e-01 5.198204851e-02 1.016369485e-01 5.205540697e-02 1.014129082e-01 -9.339838663e-01 2.968901036e-01
2.430000e+09 -9.076437333e-01 3.072472482e-01 5.269803017e-02 1.022870791e-01 5.277191898e-02 1.020609716e-01 -9.331925859e-01 2.983754447e-01
2.440000e+09 -9.065299435e-01 3.087179543e-01 5.342398529e-02 1.029396778e-01 5.349846590e-02 1.027115074e-01 -9.323917554e-01 2.998639733e-01
2.450000e+09 -9.054031421e-01 3.101899454e-01 5.416007043e-02 1.035947142e-01 5.423520942e-02 1.033644818e-01 -9.315812268e-01 3.013556680e-01
2.460000e+09 -9.042631531e-01 3.116631528e-01 5.490644459e-02 1.042521557e-01 5.498231375e-02 1.040198591e-01 -9.307608501e-01 3.028505053e-01
2.470000e+09 -9.031097985e-01 3.131375055e-01 5.566326926e-02 1.049119677e-01 5.573994558e-02 1.046776008e-01 -9.299304730e-01 3.043484595e-01
2.480000e+09 -9.019428976e-01 3.146129297e-01 5.643070840e-02 1.055741134e-01 5.650827414e-02 1.053376658e-01 -9.290899410e-01 3.058495027e-01
2.490000e+09 -9.007622677e-01 3.160893487e-01 5.720892855e-02 1.062385539e-01 5.728747121e-02 1.060000106e-01 -9.282390972e-01 3.073536044e-01
2.500000e+09 -8.995677236e-01 3.175666833e-01 5.799809880e-02 1.069052480e-01 5.807771111e-02 1.066645888e-01 -9.273777827e-01 3.088607321e-01
2.510000e+09 -8.983590779e-01 3.190448511e-01 5.879839085e-02 1.075741522e-01 5.887917069e-02 1.073313513e-01 -9.265058363e-01 3.103708505e-01
2.520000e+09 -8.971361404e-01 3.205237671e-01 5.960997907e-02 1.082452206e-01 5.969202941e-02 1.080002462e-01 -9.256230946e-01 3.118839220e-01
2.530000e+09 -8.958987190e-01 3.220033431e-01 6.043304050e-02 1.089184050e-01 6.051646927e-02 1.086712183e-01 -9.247293920e-01 3.133999063e-01
2.540000e+09 -8.946466186e-01 3.234834880e-01 6.126775491e-02 1.095936545e-01 6.135267487e-02 1.093442098e-01 -9.238245609e-01 3.149187607e-01
2.550000e+09 -8.933796419e-01 3.249641077e-01 6.211430482e-02 1.102709156e-01 6.220083339e-02 1.100191594e-01 -9.229084313e-01 3.164404395e-01
2.560000e+09 -8.920975889e-01 3.264451049e-01 6.297287558e-02 1.109501324e-01 6.306113460e-02 1.106960029e-01 -9.219808313e-01 3.179648944e-01
2.570000e+09 -8.908002573e-01 3.279263790e-01 6.384365536e-02 1.116312459e-01 6.393377085e-02 1.113746724e-01 -9.210415867e-01 3.194920744e-01
2.580000e+09 -8.894874417e-01 3.294078263e-01 6.472683524e-02 1.123141946e-01 6.481893710e-02 1.120550970e-01 -9.200905214e-01 3.210219255e-01
2.590000e+09 -8.881589345e-01 3.308893397e-01 6.562260922e-02 1.129989138e-01 6.571683091e-02 1.127372022e-01 -9.191274572e-01 3.225543908e-01
2.600000e+09 -8.868145250e-01 3.323708088e-01 6.653117428e-02 1.136853362e-01 6.662765241e-02 1.134209097e-01 -9.181522136e-01 3.240894106e-01
2.610000e+09 -8.854540001e-01 3.338521197e-01 6.745273042e-02 1.143733912e-01 6.755160435e-02 1.141061380e-01 -9.171646086e-01 3.256269220e-01
2.620000e+09 -8.840771437e-01 3.353331550e-01 6.838748073e-02 1.150630050e-01 6.848889204e-02 1.147928014e-01 -9.161644578e-01 3.271668591e-01
2.630000e+09 -8.826837367e-01 3.368137936e-01 6.933563140e-02 1.157541006e-01 6.943972341e-02 1.154808106e-01 -9.151515750e-01 3.287091531e-01
2.640000e+09 -8.812735574e-01 3.382939109e-01 7.029739180e-02 1.164465979e-01 7.040430895e-02 1.161700725e-01 -9.141257722e-01 3.302537317e-01
2.650000e+09 -8.798463809e-01 3.397733783e-01 7.127297454e-02 1.171404130e-01 7.138286172e-02 1.168604896e-01 -9.130868593e-01 3.318005196e-01
2.660000e+09 -8.784019793e-01 3.412520635e-01 7.226259549e-02 1.178354587e-01 7.237559738e-02 1.175519608e-01 -9.120346447e-01 3.333494384e-01
2.670000e+09 -8.769401217e-01 3.427298302e-01 7.326647384e-02 1.185316442e-01 7.338273412e-02 1.182443805e-01 -9.109689346e-01 3.349004063e-01
2.680000e+09 -8.754605740e-01 3.442065381e-01 7.428483221e-02 1.192288749e-01 7.440449270e-02 1.189376389e-01 -9.098895338e-01 3.364533381e-01
2.690000e+09 -8.739630987e-01 3.456820427e-01 7.531789663e-02 1.199270522e-01 7.544109644e-02 1.196316219e-01 -9.087962451e-01 3.380081455e-01
2.700000e+09 -8.724474553e-01 3.471561953e-01 7.636589667e-02 1.206260739e-01 7.649277118e-02 1.203262108e-01 -9.076888698e-01 3.395647367e-01
2.710000e+09 -8.709133996e-01 3.486288426e-01 7.742906543e-02 1.213258333e-01 7.755974530e-02 1.210212827e-01 -9.065672075e-01 3.411230165e-01
2.720000e+09 -8.693606843e-01 3.500998270e-01 7.850763968e-02 1.220262198e-01 7.864224970e-02 1.217167098e-01 -9.054310561e-01 3.426828864e-01
2.730000e+09 -8.677890583e-01 3.515689863e-01 7.960185986e-02 1.227271183e-01 7.974051781e-02 1.224123597e-01 -9.042802120e-01 3.442442445e-01
2.740000e+09 -8.661982670e-01 3.530361531e-01 8.071197019e-02 1.234284094e-01 8.085478555e-02 1.231080952e-01 -9.031144701e-01 3.458069854e-01
2.750000e+09 -8.645880520e-01 3.545011556e-01 8.183821870e-02 1.241299689e-01 8.198529136e-02 1.238037744e-01 -9.019336238e-01 3.473710002e-01
2.760000e+09 -8.629581512e-01 3.559638165e-01 8.298085734e-02 1.248316679e-01 8.313227617e-02 1.244992503e-01 -9.007374650e-01 3.489361767e-01
2.770000e+09 -8.613082987e-01 3.574239533e-01 8.414014201e-02 1.255333727e-01 8.429598340e-02 1.251943709e-01 -8.995257841e-01 3.505023990e-01
2.780000e+09 -8.596382245e-01 3.588813781e-01 8.531633265e-02 1.262349444e-01 8.547665897e-02 1.258889791e-01 -8.982983701e-01 3.520695480e-01
2.790000e+09 -8.579476545e-01 3.603358972e-01 8.650969332e-02 1.269362388e-01 8.667455129e-02 1.265829128e-01 -8.970550107e-01 3.536375011e-01
2.800000e+09 -8.562363105e-01 3.617873110e-01 8.772049224e-02 1.276371065e-01 8.788991125e-02 1.272760043e-01 -8.957954922e-01 3.552061320e-01
2.810000e+09 -8.545039102e-01 3.632354140e-01 8.894900191e-02 1.283373923e-01 8.912299225e-02 1.279680810e-01 -8.945195994e-01 3.567753112e-01
2.820000e+09 -8.527501667e-01 3.646799939e-01 9.019549914e-02 1.290369354e-01 9.037405019e-02 1.286589645e-01 -8.932271160e-01 3.583449057e-01
2.830000e+09 -8.509747888e-01 3.661208322e-01 9.146026514e-02 1.297355687e-01 9.164334350e-02 1.293484711e-01 -8.919178241e-01 3.599147790e-01
2.840000e+09 -8.491774808e-01 3.675577032e-01 9.274358561e-02 1.304331192e-01 9.293113312e-02 1.300364116e-01 -8.905915046e-01 3.614847913e-01
2.850000e+09 -8.473579421e-01 3.689903740e-01 9.404575077e-02 1.311294073e-01 9.423768256e-02 1.307225909e-01 -8.892479370e-01 3.630547994e-01
2.860000e+09 -8.455158676e-01 3.704186044e-01 9.536705547e-02 1.318242466e-01 9.556325789e-02 1.314068085e-01 -8.878868993e-01 3.646246565e-01
2.870000e+09 -8.436509473e-01 3.718421459e-01 9.670779924e-02 1.325174441e-01 9.690812780e-02 1.320888577e-01 -8.865081683e-01 3.661942127e-01
2.880000e+09 -8.417628663e-01 3.732607420e-01 9.806828637e-02 1.332087992e-01 9.827256359e-02 1.327685263e-01 -8.851115191e-01 3.677633147e-01
2.890000e+09 -8.398513046e-01 3.746741277e-01 9.944882595e-02 1.338981042e-01 9.965683928e-02 1.334455959e-01 -8.836967254e-01 3.693318058e-01
2.900000e+09 -8.379159373e-01 3.760820285e-01 1.008497320e-01 1.345851433e-01 1.010612316e-01 1.341198420e-01 -8.822635593e-01 3.708995259e-01
2.910000e+09 -8.359564341e-01 3.774841608e-01 1.022713233e-01 1.352696930e-01 1.024860200e-01 1.347910340e-01 -8.808117912e-01 3.724663118e-01
2.920000e+09 -8.339724596e-01 3.788802308e-01 1.037139239e-01 1.359515211e-01 1.039314869e-01 1.354589350e-01 -8.793411898e-01 3.740319968e-01
2.930000e+09 -8.319636731e-01 3.802699344e-01 1.051778626e-01 1.366303867e-01 1.053979176e-01 1.361233017e-01 -8.778515219e-01 3.755964111e-01
2.940000e+09 -8.299297286e-01 3.816529563e-01 1.066634733e-01 1.373060399e-01 1.068856004e-01 1.367838845e-01 -8.763425522e-01 3.771593815e-01
2.950000e+09 -8.278702746e-01 3.830289696e-01 1.081710953e-01 1.379782213e-01 1.083948265e-01 1.374404268e-01 -8.748140433e-01 3.787207315e-01
2.960000e+09 -8.257849544e-01 3.843976355e-01 1.097010727e-01 1.386466617e-01 1.099258905e-01 1.380926657e-01 -8.732657555e-01 3.802802813e-01
2.970000e+09 -8.236734056e-01 3.857586022e-01 1.112537547e-01 1.393110813e-01 1.114790903e-01 1.387403311e-01 -8.716974467e-01 3.818378476e-01
2.980000e+09 -8.215352609e-01 3.871115044e-01 1.128294959e-01 1.399711900e-01 1.130547271e-01 1.393831459e-01 -8.701088719e-01 3.833932438e-01
2.990000e+09 -8.193701471e-01 3.884559628e-01 1.144286557e-01 1.406266861e-01 1.146531058e-01 1.400208259e-01 -8.684997832e-01 3.849462799e-01
3.000000e+09 -8.171776861e-01 3.897915828e-01 1.160515988e-01 1.412772565e-01 1.162745346e-01 1.406530794e-01 -8.668699295e-01 3.864967624e-01
