! rfsim (KiCad + openEMS)
# HZ S RI R 50
5.000000e+08 -8.731430996e-01 -1.332662218e-03 -8.914579428e-01 1.293221193e-02 0.000000000e+00 0.000000000e+00 0.000000000e+00 0.000000000e+00
5.220000e+08 -8.731421757e-01 -1.391335885e-03 -8.914667124e-01 1.350158999e-02 0.000000000e+00 0.000000000e+00 0.000000000e+00 0.000000000e+00
5.440000e+08 -8.731412119e-01 -1.450014271e-03 -8.914758603e-01 1.407101476e-02 0.000000000e+00 0.000000000e+00 0.000000000e+00 0.000000000e+00
5.660000e+08 -8.731402082e-01 -1.508697577e-03 -8.914853866e-01 1.464048826e-02 0.000000000e+00 0.000000000e+00 0.000000000e+00 0.000000000e+00
5.880000e+08 -8.731391646e-01 -1.567386001e-03 -8.914952915e-01 1.521001247e-02 0.000000000e+00 0.000000000e+00 0.000000000e+00 0.000000000e+00
6.100000e+08 -8.731380812e-01 -1.626079742e-03 -8.915055749e-01 1.577958940e-02 0.000000000e+00 0.000000000e+00 0.000000000e+00 0.000000000e+00
6.320000e+08 -8.731369577e-01 -1.684779000e-03 -8.915162371e-01 1.634922105e-02 0.000000000e+00 0.000000000e+00 0.000000000e+00 0.000000000e+00
6.540000e+08 -8.731357944e-01 -1.743483975e-03 -8.915272781e-01 1.691890943e-02 0.000000000e+00 0.000000000e+00 0.000000000e+00 0.000000000e+00
6.760000e+08 -8.731345910e-01 -1.802194865e-03 -8.915386980e-01 1.748865656e-02 0.000000000e+00 0.000000000e+00 0.000000000e+00 0.000000000e+00
6.980000e+08 -8.731333478e-01 -1.860911871e-03 -8.915504971e-01 1.805846445e-02 0.000000000e+00 0.000000000e+00 0.000000000e+00 0.000000000e+00
7.200000e+08 -8.731320645e-01 -1.919635192e-03 -8.915626755e-01 1.862833511e-02 0.000000000e+00 0.000000000e+00 0.000000000e+00 0.000000000e+00
7.420000e+08 -8.731307412e-01 -1.978365028e-03 -8.915752332e-01 1.919827057e-02 0.000000000e+00 0.000000000e+00 0.000000000e+00 0.000000000e+00
7.640000e+08 -8.731293779e-01 -2.037101579e-03 -8.915881705e-01 1.976827286e-02 0.000000000e+00 0.000000000e+00 0.000000000e+00 0.000000000e+00
7.860000e+08 -8.731279745e-01 -2.095845044e-03 -8.916014875e-01 2.033834400e-02 0.000000000e+00 0.000000000e+00 0.000000000e+00 0.000000000e+00
8.080000e+08 -8.731265311e-01 -2.154595624e-03 -8.916151843e-01 2.090848603e-02 0.000000000e+00 0.000000000e+00 0.000000000e+00 0.000000000e+00
8.300000e+08 -8.731250476e-01 -2.213353518e-03 -8.916292612e-01 2.147870098e-02 0.000000000e+00 0.000000000e+00 0.000000000e+00 0.000000000e+00
8.520000e+08 -8.731235240e-01 -2.272118928e-03 -8.916437183e-01 2.204899089e-02 0.000000000e+00 0.000000000e+00 0.000000000e+00 0.000000000e+00
8.740000e+08 -8.731219603e-01 -2.330892052e-03 -8.916585559e-01 2.261935780e-02 0.000000000e+00 0.000000000e+00 0.000000000e+00 0.000000000e+00
8.960000e+08 -8.731203565e-01 -2.389673092e-03 -8.916737740e-01 2.318980376e-02 0.000000000e+00 0.000000000e+00 0.000000000e+00 0.000000000e+00
9.180000e+08 -8.731187125e-01 -2.448462249e-03 -8.916893729e-01 2.376033083e-02 0.000000000e+00 0.000000000e+00 0.000000000e+00 0.000000000e+00
9.400000e+08 -8.731170283e-01 -2.507259723e-03 -8.917053529e-01 2.433094104e-02 0.000000000e+00 0.000000000e+00 0.000000000e+00 0.000000000e+00
9.620000e+08 -8.731153039e-01 -2.566065714e-03 -8.917217141e-01 2.490163646e-02 0.000000000e+00 0.000000000e+00 0.000000000e+00 0.000000000e+00
9.840000e+08 -8.731135394e-01 -2.624880424e-03 -8.917384568e-01 2.547241914e-02 0.000000000e+00 0.000000000e+00 0.000000000e+00 0.000000000e+00
1.006000e+09 -8.731117345e-01 -2.683704055e-03 -8.917555811e-01 2.604329116e-02 0.000000000e+00 0.000000000e+00 0.000000000e+00 0.000000000e+00
1.028000e+09 -8.731098895e-01 -2.742536807e-03 -8.917730874e-01 2.661425456e-02 0.000000000e+00 0.000000000e+00 0.000000000e+00 0.000000000e+00
1.050000e+09 -8.731080041e-01 -2.801378883e-03 -8.917909759e-01 2.718531143e-02 0.000000000e+00 0.000000000e+00 0.000000000e+00 0.000000000e+00
1.072000e+09 -8.731060784e-01 -2.860230484e-03 -8.918092468e-01 2.775646383e-02 0.000000000e+00 0.000000000e+00 0.000000000e+00 0.000000000e+00
1.094000e+09 -8.731041124e-01 -2.919091811e-03 -8.918279005e-01 2.832771383e-02 0.000000000e+00 0.000000000e+00 0.000000000e+00 0.000000000e+00
1.116000e+09 -8.731021061e-01 -2.977963068e-03 -8.918469372e-01 2.889906351e-02 0.000000000e+00 0.000000000e+00 0.000000000e+00 0.000000000e+00
1.138000e+09 -8.731000594e-01 -3.036844457e-03 -8.918663571e-01 2.947051494e-02 0.000000000e+00 0.000000000e+00 0.000000000e+00 0.000000000e+00
1.160000e+09 -8.730979722e-01 -3.095736181e-03 -8.918861606e-01 3.004207021e-02 0.000000000e+00 0.000000000e+00 0.000000000e+00 0.000000000e+00
1.182000e+09 -8.730958447e-01 -3.154638442e-03 -8.919063480e-01 3.061373141e-02 0.000000000e+00 0.000000000e+00 0.000000000e+00 0.000000000e+00
1.204000e+09 -8.730936767e-01 -3.213551444e-03 -8.919269196e-01 3.118550060e-02 0.000000000e+00 0.000000000e+00 0.000000000e+00 0.000000000e+00
1.226000e+09 -8.730914682e-01 -3.272475390e-03 -8.919478757e-01 3.175737988e-02 0.000000000e+00 0.000000000e+00 0.000000000e+00 0.000000000e+00
1.248000e+09 -8.730892192e-01 -3.331410485e-03 -8.919692167e-01 3.232937134e-02 0.000000000e+00 0.000000000e+00 0.000000000e+00 0.000000000e+00
1.270000e+09 -8.730869296e-01 -3.390356933e-03 -8.919909428e-01 3.290147707e-02 0.000000000e+00 0.000000000e+00 0.000000000e+00 0.000000000e+00
1.292000e+09 -8.730845995e-01 -3.449314937e-03 -8.920130545e-01 3.347369915e-02 0.000000000e+00 0.000000000e+00 0.000000000e+00 0.000000000e+00
1.314000e+09 -8.730822289e-01 -3.508284703e-03 -8.920355521e-01 3.404603968e-02 0.000000000e+00 0.000000000e+00 0.000000000e+00 0.000000000e+00
1.336000e+09 -8.730798176e-01 -3.567266437e-03 -8.920584360e-01 3.461850074e-02 0.000000000e+00 0.000000000e+00 0.000000000e+00 0.000000000e+00
1.358000e+09 -8.730773656e-01 -3.626260343e-03 -8.920817065e-01 3.519108445e-02 0.000000000e+00 0.000000000e+00 0.000000000e+00 0.000000000e+00
1.380000e+09 -8.730748730e-01 -3.685266627e-03 -8.921053641e-01 3.576379287e-02 0.000000000e+00 0.000000000e+00 0.000000000e+00 0.000000000e+00
1.402000e+09 -8.730723396e-01 -3.744285496e-03 -8.921294091e-01 3.633662812e-02 0.000000000e+00 0.000000000e+00 0.000000000e+00 0.000000000e+00
1.424000e+09 -8.730697656e-01 -3.803317157e-03 -8.921538419e-01 3.690959229e-02 0.000000000e+00 0.000000000e+00 0.000000000e+00 0.000000000e+00
1.446000e+09 -8.730671507e-01 -3.862361816e-03 -8.921786630e-01 3.748268747e-02 0.000000000e+00 0.000000000e+00 0.000000000e+00 0.000000000e+00
1.468000e+09 -8.730644951e-01 -3.921419680e-03 -8.922038728e-01 3.805591576e-02 0.000000000e+00 0.000000000e+00 0.000000000e+00 0.000000000e+00
1.490000e+09 -8.730617986e-01 -3.980490958e-03 -8.922294717e-01 3.862927924e-02 0.000000000e+00 0.000000000e+00 0.000000000e+00 0.000000000e+00
1.512000e+09 -8.730590613e-01 -4.039575857e-03 -8.922554602e-01 3.920278003e-02 0.000000000e+00 0.000000000e+00 0.000000000e+00 0.000000000e+00
1.534000e+09 -8.730562831e-01 -4.098674587e-03 -8.922818387e-01 3.977642021e-02 0.000000000e+00 0.000000000e+00 0.000000000e+00 0.000000000e+00
1.556000e+09 -8.730534639e-01 -4.157787356e-03 -8.923086077e-01 4.035020187e-02 0.000000000e+00 0.000000000e+00 0.000000000e+00 0.000000000e+00
1.578000e+09 -8.730506038e-01 -4.216914374e-03 -8.923357677e-01 4.092412712e-02 0.000000000e+00 0.000000000e+00 0.000000000e+00 0.000000000e+00
1.600000e+09 -8.730477026e-01 -4.276055849e-03 -8.923633191e-01 4.149819803e-02 0.000000000e+00 0.000000000e+00 0.000000000e+00 0.000000000e+00
1.622000e+09 -8.730447605e-01 -4.335211994e-03 -8.923912624e-01 4.207241672e-02 0.000000000e+00 0.000000000e+00 0.000000000e+00 0.000000000e+00
1.644000e+09 -8.730417772e-01 -4.394383018e-03 -8.924195981e-01 4.264678526e-02 0.000000000e+00 0.000000000e+00 0.000000000e+00 0.000000000e+00
1.666000e+09 -8.730387528e-01 -4.453569132e-03 -8.924483267e-01 4.322130574e-02 0.000000000e+00 0.000000000e+00 0.000000000e+00 0.000000000e+00
1.688000e+09 -8.730356873e-01 -4.512770548e-03 -8.924774488e-01 4.379598026e-02 0.000000000e+00 0.000000000e+00 0.000000000e+00 0.000000000e+00
1.710000e+09 -8.730325806e-01 -4.571987478e-03 -8.925069648e-01 4.437081090e-02 0.000000000e+00 0.000000000e+00 0.000000000e+00 0.000000000e+00
1.732000e+09 -8.730294327e-01 -4.631220134e-03 -8.925368754e-01 4.494579975e-02 0.000000000e+00 0.000000000e+00 0.000000000e+00 0.000000000e+00
1.754000e+09 -8.730262435e-01 -4.690468729e-03 -8.925671809e-01 4.552094890e-02 0.000000000e+00 0.000000000e+00 0.000000000e+00 0.000000000e+00
1.776000e+09 -8.730230130e-01 -4.749733475e-03 -8.925978820e-01 4.609626042e-02 0.000000000e+00 0.000000000e+00 0.000000000e+00 0.000000000e+00
1.798000e+09 -8.730197411e-01 -4.809014587e-03 -8.926289793e-01 4.667173640e-02 0.000000000e+00 0.000000000e+00 0.000000000e+00 0.000000000e+00
1.820000e+09 -8.730164279e-01 -4.868312278e-03 -8.926604732e-01 4.724737893e-02 0.000000000e+00 0.000000000e+00 0.000000000e+00 0.000000000e+00
1.842000e+09 -8.730130732e-01 -4.927626763e-03 -8.926923644e-01 4.782319007e-02 0.000000000e+00 0.000000000e+00 0.000000000e+00 0.000000000e+00
1.864000e+09 -8.730096771e-01 -4.986958257e-03 -8.927246534e-01 4.839917191e-02 0.000000000e+00 0.000000000e+00 0.000000000e+00 0.000000000e+00
1.886000e+09 -8.730062394e-01 -5.046306974e-03 -8.927573408e-01 4.897532653e-02 0.000000000e+00 0.000000000e+00 0.000000000e+00 0.000000000e+00
1.908000e+09 -8.730027601e-01 -5.105673130e-03 -8.927904272e-01 4.955165600e-02 0.000000000e+00 0.000000000e+00 0.000000000e+00 0.000000000e+00
1.930000e+09 -8.729992393e-01 -5.165056941e-03 -8.928239132e-01 5.012816239e-02 0.000000000e+00 0.000000000e+00 0.000000000e+00 0.000000000e+00
1.952000e+09 -8.729956767e-01 -5.224458623e-03 -8.928577994e-01 5.070484777e-02 0.000000000e+00 0.000000000e+00 0.000000000e+00 0.000000000e+00
1.974000e+09 -8.729920725e-01 -5.283878393e-03 -8.928920864e-01 5.128171422e-02 0.000000000e+00 0.000000000e+00 0.000000000e+00 0.000000000e+00
1.996000e+09 -8.729884265e-01 -5.343316468e-03 -8.929267748e-01 5.185876381e-02 0.000000000e+00 0.000000000e+00 0.000000000e+00 0.000000000e+00
2.018000e+09 -8.729847387e-01 -5.402773066e-03 -8.929618652e-01 5.243599860e-02 0.000000000e+00 0.000000000e+00 0.000000000e+00 0.000000000e+00
2.040000e+09 -8.729810091e-01 -5.462248403e-03 -8.929973583e-01 5.301342065e-02 0.000000000e+00 0.000000000e+00 0.000000000e+00 0.000000000e+00
2.062000e+09 -8.729772376e-01 -5.521742699e-03 -8.930332546e-01 5.359103204e-02 0.000000000e+00 0.000000000e+00 0.000000000e+00 0.000000000e+00
2.084000e+09 -8.729734241e-01 -5.581256172e-03 -8.930695549e-01 5.416883483e-02 0.000000000e+00 0.000000000e+00 0.000000000e+00 0.000000000e+00
2.106000e+09 -8.729695686e-01 -5.640789040e-03 -8.931062598e-01 5.474683109e-02 0.000000000e+00 0.000000000e+00 0.000000000e+00 0.000000000e+00
2.128000e+09 -8.729656710e-01 -5.700341523e-03 -8.931433698e-01 5.532502286e-02 0.000000000e+00 0.000000000e+00 0.000000000e+00 0.000000000e+00
2.150000e+09 -8.729617313e-01 -5.759913840e-03 -8.931808858e-01 5.590341222e-02 0.000000000e+00 0.000000000e+00 0.000000000e+00 0.000000000e+00
2.172000e+09 -8.729577495e-01 -5.819506212e-03 -8.932188082e-01 5.648200123e-02 0.000000000e+00 0.000000000e+00 0.000000000e+00 0.000000000e+00
2.194000e+09 -8.729537254e-01 -5.879118858e-03 -8.932571378e-01 5.706079195e-02 0.000000000e+00 0.000000000e+00 0.000000000e+00 0.000000000e+00
2.216000e+09 -8.729496591e-01 -5.938752000e-03 -8.932958753e-01 5.763978642e-02 0.000000000e+00 0.000000000e+00 0.000000000e+00 0.000000000e+00
2.238000e+09 -8.729455504e-01 -5.998405857e-03 -8.933350213e-01 5.821898673e-02 0.000000000e+00 0.000000000e+00 0.000000000e+00 0.000000000e+00
2.260000e+09 -8.729413993e-01 -6.058080652e-03 -8.933745765e-01 5.879839492e-02 0.000000000e+00 0.000000000e+00 0.000000000e+00 0.000000000e+00
2.282000e+09 -8.729372058e-01 -6.117776606e-03 -8.934145416e-01 5.937801305e-02 0.000000000e+00 0.000000000e+00 0.000000000e+00 0.000000000e+00
2.304000e+09 -8.729329698e-01 -6.177493942e-03 -8.934549172e-01 5.995784318e-02 0.000000000e+00 0.000000000e+00 0.000000000e+00 0.000000000e+00
2.326000e+09 -8.729286912e-01 -6.237232882e-03 -8.934957041e-01 6.053788737e-02 0.000000000e+00 0.000000000e+00 0.000000000e+00 0.000000000e+00
2.348000e+09 -8.729243700e-01 -6.296993648e-03 -8.935369029e-01 6.111814768e-02 0.000000000e+00 0.000000000e+00 0.000000000e+00 0.000000000e+00
2.370000e+09 -8.729200060e-01 -6.356776464e-03 -8.935785143e-01 6.169862616e-02 0.000000000e+00 0.000000000e+00 0.000000000e+00 0.000000000e+00
2.392000e+09 -8.729155994e-01 -6.416581553e-03 -8.936205391e-01 6.227932489e-02 0.000000000e+00 0.000000000e+00 0.000000000e+00 0.000000000e+00
2.414000e+09 -8.729111499e-01 -6.476409140e-03 -8.936629779e-01 6.286024592e-02 0.000000000e+00 0.000000000e+00 0.000000000e+00 0.000000000e+00
2.436000e+09 -8.729066576e-01 -6.536259448e-03 -8.937058315e-01 6.344139130e-02 0.000000000e+00 0.000000000e+00 0.000000000e+00 0.000000000e+00
2.458000e+09 -8.729021223e-01 -6.596132703e-03 -8.937491006e-01 6.402276311e-02 0.000000000e+00 0.000000000e+00 0.000000000e+00 0.000000000e+00
2.480000e+09 -8.728975440e-01 -6.656029130e-03 -8.937927858e-01 6.460436341e-02 0.000000000e+00 0.000000000e+00 0.000000000e+00 0.000000000e+00
2.502000e+09 -8.728929226e-01 -6.715948954e-03 -8.938368879e-01 6.518619427e-02 0.000000000e+00 0.000000000e+00 0.000000000e+00 0.000000000e+00
2.524000e+09 -8.728882581e-01 -6.775892402e-03 -8.938814076e-01 6.576825775e-02 0.000000000e+00 0.000000000e+00 0.000000000e+00 0.000000000e+00
2.546000e+09 -8.728835504e-01 -6.835859699e-03 -8.939263457e-01 6.635055591e-02 0.000000000e+00 0.000000000e+00 0.000000000e+00 0.000000000e+00
2.568000e+09 -8.728787994e-01 -6.895851074e-03 -8.939717029e-01 6.693309084e-02 0.000000000e+00 0.000000000e+00 0.000000000e+00 0.000000000e+00
2.590000e+09 -8.728740051e-01 -6.955866752e-03 -8.940174799e-01 6.751586460e-02 0.000000000e+00 0.000000000e+00 0.000000000e+00 0.000000000e+00
2.612000e+09 -8.728691673e-01 -7.015906962e-03 -8.940636775e-01 6.809887928e-02 0.000000000e+00 0.000000000e+00 0.000000000e+00 0.000000000e+00
2.634000e+09 -8.728642861e-01 -7.075971933e-03 -8.941102963e-01 6.868213694e-02 0.000000000e+00 0.000000000e+00 0.000000000e+00 0.000000000e+00
2.656000e+09 -8.728593613e-01 -7.136061892e-03 -8.941573372e-01 6.926563967e-02 0.000000000e+00 0.000000000e+00 0.000000000e+00 0.000000000e+00
2.678000e+09 -8.728543929e-01 -7.196177069e-03 -8.942048009e-01 6.984938955e-02 0.000000000e+00 0.000000000e+00 0.000000000e+00 0.000000000e+00
2.700000e+09 -8.728493808e-01 -7.256317695e-03 -8.942526882e-01 7.043338867e-02 0.000000000e+00 0.000000000e+00 0.000000000e+00 0.000000000e+00
2.722000e+09 -8.728443250e-01 -7.316483997e-03 -8.943009997e-01 7.101763912e-02 0.000000000e+00 0.000000000e+00 0.000000000e+00 0.000000000e+00
2.744000e+09 -8.728392252e-01 -7.376676209e-03 -8.943497363e-01 7.160214299e-02 0.000000000e+00 0.000000000e+00 0.000000000e+00 0.000000000e+00
2.766000e+09 -8.728340816e-01 -7.436894560e-03 -8.943988988e-01 7.218690237e-02 0.000000000e+00 0.000000000e+00 0.000000000e+00 0.000000000e+00
2.788000e+09 -8.728288940e-01 -7.497139282e-03 -8.944484878e-01 7.277191937e-02 0.000000000e+00 0.000000000e+00 0.000000000e+00 0.000000000e+00
2.810000e+09 -8.728236622e-01 -7.557410607e-03 -8.944985043e-01 7.335719610e-02 0.000000000e+00 0.000000000e+00 0.000000000e+00 0.000000000e+00
2.832000e+09 -8.728183864e-01 -7.617708768e-03 -8.945489489e-01 7.394273465e-02 0.000000000e+00 0.000000000e+00 0.000000000e+00 0.000000000e+00
2.854000e+09 -8.728130663e-01 -7.678033998e-03 -8.945998224e-01 7.452853714e-02 0.000000000e+00 0.000000000e+00 0.000000000e+00 0.000000000e+00
2.876000e+09 -8.728077018e-01 -7.738386531e-03 -8.946511256e-01 7.511460569e-02 0.000000000e+00 0.000000000e+00 0.000000000e+00 0.000000000e+00
2.898000e+09 -8.728022930e-01 -7.798766600e-03 -8.947028593e-01 7.570094242e-02 0.000000000e+00 0.000000000e+00 0.000000000e+00 0.000000000e+00
2.920000e+09 -8.727968397e-01 -7.859174441e-03 -8.947550244e-01 7.628754944e-02 0.000000000e+00 0.000000000e+00 0.000000000e+00 0.000000000e+00
2.942000e+09 -8.727913419e-01 -7.919610287e-03 -8.948076215e-01 7.687442891e-02 0.000000000e+00 0.000000000e+00 0.000000000e+00 0.000000000e+00
2.964000e+09 -8.727857994e-01 -7.980074375e-03 -8.948606516e-01 7.746158294e-02 0.000000000e+00 0.000000000e+00 0.000000000e+00 0.000000000e+00
2.986000e+09 -8.727802122e-01 -8.040566941e-03 -8.949141154e-01 7.804901367e-02 0.000000000e+00 0.000000000e+00 0.000000000e+00 0.000000000e+00
3.008000e+09 -8.727745801e-01 -8.101088222e-03 -8.949680137e-01 7.863672326e-02 0.000000000e+00 0.000000000e+00 0.000000000e+00 0.000000000e+00
3.030000e+09 -8.727689032e-01 -8.161638454e-03 -8.950223474e-01 7.922471386e-02 0.000000000e+00 0.000000000e+00 0.000000000e+00 0.000000000e+00
3.052000e+09 -8.727631812e-01 -8.222217874e-03 -8.950771172e-01 7.981298761e-02 0.000000000e+00 0.000000000e+00 0.000000000e+00 0.000000000e+00
3.074000e+09 -8.727574142e-01 -8.282826722e-03 -8.951323241e-01 8.040154668e-02 0.000000000e+00 0.000000000e+00 0.000000000e+00 0.000000000e+00
3.096000e+09 -8.727516020e-01 -8.343465235e-03 -8.951879687e-01 8.099039324e-02 0.000000000e+00 0.000000000e+00 0.000000000e+00 0.000000000e+00
3.118000e+09 -8.727457446e-01 -8.404133651e-03 -8.952440521e-01 8.157952946e-02 0.000000000e+00 0.000000000e+00 0.000000000e+00 0.000000000e+00
3.140000e+09 -8.727398418e-01 -8.464832212e-03 -8.953005750e-01 8.216895751e-02 0.000000000e+00 0.000000000e+00 0.000000000e+00 0.000000000e+00
3.162000e+09 -8.727338936e-01 -8.525561155e-03 -8.953575383e-01 8.275867959e-02 0.000000000e+00 0.000000000e+00 0.000000000e+00 0.000000000e+00
3.184000e+09 -8.727278998e-01 -8.586320722e-03 -8.954149428e-01 8.334869787e-02 0.000000000e+00 0.000000000e+00 0.000000000e+00 0.000000000e+00
3.206000e+09 -8.727218604e-01 -8.647111153e-03 -8.954727894e-01 8.393901456e-02 0.000000000e+00 0.000000000e+00 0.000000000e+00 0.000000000e+00
3.228000e+09 -8.727157752e-01 -8.707932688e-03 -8.955310789e-01 8.452963186e-02 0.000000000e+00 0.000000000e+00 0.000000000e+00 0.000000000e+00
3.250000e+09 -8.727096442e-01 -8.768785571e-03 -8.955898124e-01 8.512055198e-02 0.000000000e+00 0.000000000e+00 0.000000000e+00 0.000000000e+00
3.272000e+09 -8.727034673e-01 -8.829670041e-03 -8.956489905e-01 8.571177712e-02 0.000000000e+00 0.000000000e+00 0.000000000e+00 0.000000000e+00
3.294000e+09 -8.726972444e-01 -8.890586342e-03 -8.957086143e-01 8.630330951e-02 0.000000000e+00 0.000000000e+00 0.000000000e+00 0.000000000e+00
3.316000e+09 -8.726909753e-01 -8.951534717e-03 -8.957686845e-01 8.689515138e-02 0.000000000e+00 0.000000000e+00 0.000000000e+00 0.000000000e+00
3.338000e+09 -8.726846600e-01 -9.012515407e-03 -8.958292022e-01 8.748730496e-02 0.000000000e+00 0.000000000e+00 0.000000000e+00 0.000000000e+00
3.360000e+09 -8.726782984e-01 -9.073528656e-03 -8.958901683e-01 8.807977249e-02 0.000000000e+00 0.000000000e+00 0.000000000e+00 0.000000000e+00
3.382000e+09 -8.726718903e-01 -9.134574709e-03 -8.959515835e-01 8.867255621e-02 0.000000000e+00 0.000000000e+00 0.000000000e+00 0.000000000e+00
3.404000e+09 -8.726654357e-01 -9.195653809e-03 -8.960134490e-01 8.926565838e-02 0.000000000e+00 0.000000000e+00 0.000000000e+00 0.000000000e+00
3.426000e+09 -8.726589344e-01 -9.256766200e-03 -8.960757655e-01 8.985908125e-02 0.000000000e+00 0.000000000e+00 0.000000000e+00 0.000000000e+00
3.448000e+09 -8.726523863e-01 -9.317912127e-03 -8.961385341e-01 9.045282708e-02 0.000000000e+00 0.000000000e+00 0.000000000e+00 0.000000000e+00
3.470000e+09 -8.726457914e-01 -9.379091834e-03 -8.962017556e-01 9.104689816e-02 0.000000000e+00 0.000000000e+00 0.000000000e+00 0.000000000e+00
3.492000e+09 -8.726391495e-01 -9.440305568e-03 -8.962654312e-01 9.164129675e-02 0.000000000e+00 0.000000000e+00 0.000000000e+00 0.000000000e+00
3.514000e+09 -8.726324606e-01 -9.501553574e-03 -8.963295616e-01 9.223602515e-02 0.000000000e+00 0.000000000e+00 0.000000000e+00 0.000000000e+00
3.536000e+09 -8.726257244e-01 -9.562836097e-03 -8.963941479e-01 9.283108563e-02 0.000000000e+00 0.000000000e+00 0.000000000e+00 0.000000000e+00
3.558000e+09 -8.726189409e-01 -9.624153384e-03 -8.964591910e-01 9.342648050e-02 0.000000000e+00 0.000000000e+00 0.000000000e+00 0.000000000e+00
3.580000e+09 -8.726121100e-01 -9.685505680e-03 -8.965246920e-01 9.402221207e-02 0.000000000e+00 0.000000000e+00 0.000000000e+00 0.000000000e+00
3.602000e+09 -8.726052315e-01 -9.746893233e-03 -8.965906518e-01 9.461828263e-02 0.000000000e+00 0.000000000e+00 0.000000000e+00 0.000000000e+00
3.624000e+09 -8.725983054e-01 -9.808316289e-03 -8.966570714e-01 9.521469451e-02 0.000000000e+00 0.000000000e+00 0.000000000e+00 0.000000000e+00
3.646000e+09 -8.725913314e-01 -9.869775096e-03 -8.967239519e-01 9.581145004e-02 0.000000000e+00 0.000000000e+00 0.000000000e+00 0.000000000e+00
3.668000e+09 -8.725843096e-01 -9.931269900e-03 -8.967912943e-01 9.640855153e-02 0.000000000e+00 0.000000000e+00 0.000000000e+00 0.000000000e+00
3.690000e+09 -8.725772398e-01 -9.992800950e-03 -8.968590995e-01 9.700600133e-02 0.000000000e+00 0.000000000e+00 0.000000000e+00 0.000000000e+00
3.712000e+09 -8.725701218e-01 -1.005436849e-02 -8.969273687e-01 9.760380178e-02 0.000000000e+00 0.000000000e+00 0.000000000e+00 0.000000000e+00
3.734000e+09 -8.725629555e-01 -1.011597278e-02 -8.969961029e-01 9.820195523e-02 0.000000000e+00 0.000000000e+00 0.000000000e+00 0.000000000e+00
3.756000e+09 -8.725557409e-01 -1.017761405e-02 -8.970653031e-01 9.880046403e-02 0.000000000e+00 0.000000000e+00 0.000000000e+00 0.000000000e+00
3.778000e+09 -8.725484778e-01 -1.023929256e-02 -8.971349704e-01 9.939933055e-02 0.000000000e+00 0.000000000e+00 0.000000000e+00 0.000000000e+00
3.800000e+09 -8.725411660e-01 -1.030100856e-02 -8.972051059e-01 9.999855716e-02 0.000000000e+00 0.000000000e+00 0.000000000e+00 0.000000000e+00
3.822000e+09 -8.725338054e-01 -1.036276229e-02 -8.972757106e-01 1.005981462e-01 0.000000000e+00 0.000000000e+00 0.000000000e+00 0.000000000e+00
3.844000e+09 -8.725263960e-01 -1.042455401e-02 -8.973467857e-01 1.011981001e-01 0.000000000e+00 0.000000000e+00 0.000000000e+00 0.000000000e+00
3.866000e+09 -8.725189375e-01 -1.048638396e-02 -8.974183322e-01 1.017984213e-01 0.000000000e+00 0.000000000e+00 0.000000000e+00 0.000000000e+00
3.888000e+09 -8.725114299e-01 -1.054825240e-02 -8.974903513e-01 1.023991121e-01 0.000000000e+00 0.000000000e+00 0.000000000e+00 0.000000000e+00
3.910000e+09 -8.725038730e-01 -1.061015956e-02 -8.975628440e-01 1.030001749e-01 0.000000000e+00 0.000000000e+00 0.000000000e+00 0.000000000e+00
3.932000e+09 -8.724962667e-01 -1.067210571e-02 -8.976358115e-01 1.036016121e-01 0.000000000e+00 0.000000000e+00 0.000000000e+00 0.000000000e+00
3.954000e+09 -8.724886108e-01 -1.073409110e-02 -8.977092550e-01 1.042034262e-01 0.000000000e+00 0.000000000e+00 0.000000000e+00 0.000000000e+00
3.976000e+09 -8.724809053e-01 -1.079611596e-02 -8.977831756e-01 1.048056196e-01 0.000000000e+00 0.000000000e+00 0.000000000e+00 0.000000000e+00
3.998000e+09 -8.724731500e-01 -1.085818057e-02 -8.978575744e-01 1.054081947e-01 0.000000000e+00 0.000000000e+00 0.000000000e+00 0.000000000e+00
4.020000e+09 -8.724653447e-01 -1.092028515e-02 -8.979324526e-01 1.060111540e-01 0.000000000e+00 0.000000000e+00 0.000000000e+00 0.000000000e+00
4.042000e+09 -8.724574893e-01 -1.098242997e-02 -8.980078114e-01 1.066144998e-01 0.000000000e+00 0.000000000e+00 0.000000000e+00 0.000000000e+00
4.064000e+09 -8.724495837e-01 -1.104461528e-02 -8.980836520e-01 1.072182347e-01 0.000000000e+00 0.000000000e+00 0.000000000e+00 0.000000000e+00
4.086000e+09 -8.724416277e-01 -1.110684133e-02 -8.981599755e-01 1.078223611e-01 0.000000000e+00 0.000000000e+00 0.000000000e+00 0.000000000e+00
4.108000e+09 -8.724336212e-01 -1.116910837e-02 -8.982367832e-01 1.084268814e-01 0.000000000e+00 0.000000000e+00 0.000000000e+00 0.000000000e+00
4.130000e+09 -8.724255641e-01 -1.123141665e-02 -8.983140764e-01 1.090317981e-01 0.000000000e+00 0.000000000e+00 0.000000000e+00 0.000000000e+00
4.152000e+09 -8.724174562e-01 -1.129376642e-02 -8.983918561e-01 1.096371138e-01 0.000000000e+00 0.000000000e+00 0.000000000e+00 0.000000000e+00
4.174000e+09 -8.724092973e-01 -1.135615794e-02 -8.984701237e-01 1.102428309e-01 0.000000000e+00 0.000000000e+00 0.000000000e+00 0.000000000e+00
4.196000e+09 -8.724010874e-01 -1.141859146e-02 -8.985488805e-01 1.108489518e-01 0.000000000e+00 0.000000000e+00 0.000000000e+00 0.000000000e+00
4.218000e+09 -8.723928263e-01 -1.148106723e-02 -8.986281276e-01 1.114554792e-01 0.000000000e+00 0.000000000e+00 0.000000000e+00 0.000000000e+00
4.240000e+09 -8.723845138e-01 -1.154358551e-02 -8.987078663e-01 1.120624154e-01 0.000000000e+00 0.000000000e+00 0.000000000e+00 0.000000000e+00
4.262000e+09 -8.723761498e-01 -1.160614655e-02 -8.987880980e-01 1.126697630e-01 0.000000000e+00 0.000000000e+00 0.000000000e+00 0.000000000e+00
4.284000e+09 -8.723677341e-01 -1.166875060e-02 -8.988688239e-01 1.132775245e-01 0.000000000e+00 0.000000000e+00 0.000000000e+00 0.000000000e+00
4.306000e+09 -8.723592666e-01 -1.173139791e-02 -8.989500454e-01 1.138857025e-01 0.000000000e+00 0.000000000e+00 0.000000000e+00 0.000000000e+00
4.328000e+09 -8.723507472e-01 -1.179408875e-02 -8.990317636e-01 1.144942995e-01 0.000000000e+00 0.000000000e+00 0.000000000e+00 0.000000000e+00
4.350000e+09 -8.723421757e-01 -1.185682337e-02 -8.991139801e-01 1.151033179e-01 0.000000000e+00 0.000000000e+00 0.000000000e+00 0.000000000e+00
4.372000e+09 -8.723335519e-01 -1.191960201e-02 -8.991966960e-01 1.157127605e-01 0.000000000e+00 0.000000000e+00 0.000000000e+00 0.000000000e+00
4.394000e+09 -8.723248757e-01 -1.198242494e-02 -8.992799129e-01 1.163226296e-01 0.000000000e+00 0.000000000e+00 0.000000000e+00 0.000000000e+00
4.416000e+09 -8.723161470e-01 -1.204529241e-02 -8.993636319e-01 1.169329279e-01 0.000000000e+00 0.000000000e+00 0.000000000e+00 0.000000000e+00
4.438000e+09 -8.723073655e-01 -1.210820468e-02 -8.994478545e-01 1.175436580e-01 0.000000000e+00 0.000000000e+00 0.000000000e+00 0.000000000e+00
4.460000e+09 -8.722985312e-01 -1.217116200e-02 -8.995325821e-01 1.181548224e-01 0.000000000e+00 0.000000000e+00 0.000000000e+00 0.000000000e+00
4.482000e+09 -8.722896439e-01 -1.223416463e-02 -8.996178161e-01 1.187664237e-01 0.000000000e+00 0.000000000e+00 0.000000000e+00 0.000000000e+00
4.504000e+09 -8.722807033e-01 -1.229721283e-02 -8.997035579e-01 1.193784644e-01 0.000000000e+00 0.000000000e+00 0.000000000e+00 0.000000000e+00
4.526000e+09 -8.722717095e-01 -1.236030686e-02 -8.997898088e-01 1.199909473e-01 0.000000000e+00 0.000000000e+00 0.000000000e+00 0.000000000e+00
4.548000e+09 -8.722626621e-01 -1.242344697e-02 -8.998765705e-01 1.206038748e-01 0.000000000e+00 0.000000000e+00 0.000000000e+00 0.000000000e+00
4.570000e+09 -8.722535611e-01 -1.248663341e-02 -8.999638442e-01 1.212172496e-01 0.000000000e+00 0.000000000e+00 0.000000000e+00 0.000000000e+00
4.592000e+09 -8.722444063e-01 -1.254986646e-02 -9.000516314e-01 1.218310743e-01 0.000000000e+00 0.000000000e+00 0.000000000e+00 0.000000000e+00
4.614000e+09 -8.722351975e-01 -1.261314636e-02 -9.001399337e-01 1.224453515e-01 0.000000000e+00 0.000000000e+00 0.000000000e+00 0.000000000e+00
4.636000e+09 -8.722259345e-01 -1.267647339e-02 -9.002287524e-01 1.230600839e-01 0.000000000e+00 0.000000000e+00 0.000000000e+00 0.000000000e+00
4.658000e+09 -8.722166173e-01 -1.273984779e-02 -9.003180892e-01 1.236752741e-01 0.000000000e+00 0.000000000e+00 0.000000000e+00 0.000000000e+00
4.680000e+09 -8.722072456e-01 -1.280326982e-02 -9.004079454e-01 1.242909246e-01 0.000000000e+00 0.000000000e+00 0.000000000e+00 0.000000000e+00
4.702000e+09 -8.721978193e-01 -1.286673976e-02 -9.004983227e-01 1.249070383e-01 0.000000000e+00 0.000000000e+00 0.000000000e+00 0.000000000e+00
4.724000e+09 -8.721883381e-01 -1.293025786e-02 -9.005892225e-01 1.255236176e-01 0.000000000e+00 0.000000000e+00 0.000000000e+00 0.000000000e+00
4.746000e+09 -8.721788021e-01 -1.299382437e-02 -9.006806465e-01 1.261406654e-01 0.000000000e+00 0.000000000e+00 0.000000000e+00 0.000000000e+00
4.768000e+09 -8.721692109e-01 -1.305743958e-02 -9.007725961e-01 1.267581842e-01 0.000000000e+00 0.000000000e+00 0.000000000e+00 0.000000000e+00
4.790000e+09 -8.721595644e-01 -1.312110372e-02 -9.008650729e-01 1.273761767e-01 0.000000000e+00 0.000000000e+00 0.000000000e+00 0.000000000e+00
4.812000e+09 -8.721498624e-01 -1.318481708e-02 -9.009580786e-01 1.279946455e-01 0.000000000e+00 0.000000000e+00 0.000000000e+00 0.000000000e+00
4.834000e+09 -8.721401048e-01 -1.324857991e-02 -9.010516147e-01 1.286135935e-01 0.000000000e+00 0.000000000e+00 0.000000000e+00 0.000000000e+00
4.856000e+09 -8.721302914e-01 -1.331239248e-02 -9.011456828e-01 1.292330232e-01 0.000000000e+00 0.000000000e+00 0.000000000e+00 0.000000000e+00
4.878000e+09 -8.721204220e-01 -1.337625506e-02 -9.012402846e-01 1.298529374e-01 0.000000000e+00 0.000000000e+00 0.000000000e+00 0.000000000e+00
4.900000e+09 -8.721104965e-01 -1.344016790e-02 -9.013354216e-01 1.304733388e-01 0.000000000e+00 0.000000000e+00 0.000000000e+00 0.000000000e+00
4.922000e+09 -8.721005147e-01 -1.350413127e-02 -9.014310957e-01 1.310942300e-01 0.000000000e+00 0.000000000e+00 0.000000000e+00 0.000000000e+00
4.944000e+09 -8.720904764e-01 -1.356814545e-02 -9.015273083e-01 1.317156138e-01 0.000000000e+00 0.000000000e+00 0.000000000e+00 0.000000000e+00
4.966000e+09 -8.720803814e-01 -1.363221070e-02 -9.016240613e-01 1.323374929e-01 0.000000000e+00 0.000000000e+00 0.000000000e+00 0.000000000e+00
4.988000e+09 -8.720702295e-01 -1.369632729e-02 -9.017213562e-01 1.329598700e-01 0.000000000e+00 0.000000000e+00 0.000000000e+00 0.000000000e+00
5.010000e+09 -8.720600206e-01 -1.376049548e-02 -9.018191948e-01 1.335827479e-01 0.000000000e+00 0.000000000e+00 0.000000000e+00 0.000000000e+00
5.032000e+09 -8.720497546e-01 -1.382471555e-02 -9.019175789e-01 1.342061293e-01 0.000000000e+00 0.000000000e+00 0.000000000e+00 0.000000000e+00
5.054000e+09 -8.720394311e-01 -1.388898776e-02 -9.020165100e-01 1.348300169e-01 0.000000000e+00 0.000000000e+00 0.000000000e+00 0.000000000e+00
5.076000e+09 -8.720290501e-01 -1.395331239e-02 -9.021159901e-01 1.354544135e-01 0.000000000e+00 0.000000000e+00 0.000000000e+00 0.000000000e+00
5.098000e+09 -8.720186114e-01 -1.401768971e-02 -9.022160208e-01 1.360793218e-01 0.000000000e+00 0.000000000e+00 0.000000000e+00 0.000000000e+00
5.120000e+09 -8.720081147e-01 -1.408211998e-02 -9.023166039e-01 1.367047447e-01 0.000000000e+00 0.000000000e+00 0.000000000e+00 0.000000000e+00
5.142000e+09 -8.719975600e-01 -1.414660350e-02 -9.024177413e-01 1.373306848e-01 0.000000000e+00 0.000000000e+00 0.000000000e+00 0.000000000e+00
5.164000e+09 -8.719869469e-01 -1.421114051e-02 -9.025194346e-01 1.379571449e-01 0.000000000e+00 0.000000000e+00 0.000000000e+00 0.000000000e+00
5.186000e+09 -8.719762754e-01 -1.427573132e-02 -9.026216858e-01 1.385841279e-01 0.000000000e+00 0.000000000e+00 0.000000000e+00 0.000000000e+00
5.208000e+09 -8.719655452e-01 -1.434037617e-02 -9.027244966e-01 1.392116364e-01 0.000000000e+00 0.000000000e+00 0.000000000e+00 0.000000000e+00
5.230000e+09 -8.719547562e-01 -1.440507537e-02 -9.028278689e-01 1.398396734e-01 0.000000000e+00 0.000000000e+00 0.000000000e+00 0.000000000e+00
5.252000e+09 -8.719439081e-01 -1.446982917e-02 -9.029318045e-01 1.404682415e-01 0.000000000e+00 0.000000000e+00 0.000000000e+00 0.000000000e+00
5.274000e+09 -8.719330008e-01 -1.453463786e-02 -9.030363053e-01 1.410973436e-01 0.000000000e+00 0.000000000e+00 0.000000000e+00 0.000000000e+00
5.296000e+09 -8.719220342e-01 -1.459950172e-02 -9.031413732e-01 1.417269824e-01 0.000000000e+00 0.000000000e+00 0.000000000e+00 0.000000000e+00
5.318000e+09 -8.719110079e-01 -1.466442102e-02 -9.032470101e-01 1.423571609e-01 0.000000000e+00 0.000000000e+00 0.000000000e+00 0.000000000e+00
5.340000e+09 -8.718999218e-01 -1.472939606e-02 -9.033532179e-01 1.429878818e-01 0.000000000e+00 0.000000000e+00 0.000000000e+00 0.000000000e+00
5.362000e+09 -8.718887757e-01 -1.479442710e-02 -9.034599985e-01 1.436191478e-01 0.000000000e+00 0.000000000e+00 0.000000000e+00 0.000000000e+00
5.384000e+09 -8.718775695e-01 -1.485951443e-02 -9.035673538e-01 1.442509620e-01 0.000000000e+00 0.000000000e+00 0.000000000e+00 0.000000000e+00
5.406000e+09 -8.718663029e-01 -1.492465834e-02 -9.036752858e-01 1.448833270e-01 0.000000000e+00 0.000000000e+00 0.000000000e+00 0.000000000e+00
5.428000e+09 -8.718549757e-01 -1.498985911e-02 -9.037837965e-01 1.455162458e-01 0.000000000e+00 0.000000000e+00 0.000000000e+00 0.000000000e+00
5.450000e+09 -8.718435877e-01 -1.505511702e-02 -9.038928878e-01 1.461497211e-01 0.000000000e+00 0.000000000e+00 0.000000000e+00 0.000000000e+00
5.472000e+09 -8.718321388e-01 -1.512043236e-02 -9.040025617e-01 1.467837559e-01 0.000000000e+00 0.000000000e+00 0.000000000e+00 0.000000000e+00
5.494000e+09 -8.718206287e-01 -1.518580542e-02 -9.041128203e-01 1.474183529e-01 0.000000000e+00 0.000000000e+00 0.000000000e+00 0.000000000e+00
5.516000e+09 -8.718090572e-01 -1.525123648e-02 -9.042236654e-01 1.480535151e-01 0.000000000e+00 0.000000000e+00 0.000000000e+00 0.000000000e+00
5.538000e+09 -8.717974242e-01 -1.531672584e-02 -9.043350993e-01 1.486892453e-01 0.000000000e+00 0.000000000e+00 0.000000000e+00 0.000000000e+00
5.560000e+09 -8.717857294e-01 -1.538227379e-02 -9.044471238e-01 1.493255464e-01 0.000000000e+00 0.000000000e+00 0.000000000e+00 0.000000000e+00
5.582000e+09 -8.717739726e-01 -1.544788061e-02 -9.045597411e-01 1.499624212e-01 0.000000000e+00 0.000000000e+00 0.000000000e+00 0.000000000e+00
5.604000e+09 -8.717621537e-01 -1.551354660e-02 -9.046729533e-01 1.505998727e-01 0.000000000e+00 0.000000000e+00 0.000000000e+00 0.000000000e+00
5.626000e+09 -8.717502723e-01 -1.557927205e-02 -9.047867623e-01 1.512379037e-01 0.000000000e+00 0.000000000e+00 0.000000000e+00 0.000000000e+00
5.648000e+09 -8.717383284e-01 -1.564505726e-02 -9.049011704e-01 1.518765172e-01 0.000000000e+00 0.000000000e+00 0.000000000e+00 0.000000000e+00
5.670000e+09 -8.717263216e-01 -1.571090252e-02 -9.050161796e-01 1.525157160e-01 0.000000000e+00 0.000000000e+00 0.000000000e+00 0.000000000e+00
5.692000e+09 -8.717142518e-01 -1.577680813e-02 -9.051317921e-01 1.531555031e-01 0.000000000e+00 0.000000000e+00 0.000000000e+00 0.000000000e+00
5.714000e+09 -8.717021188e-01 -1.584277439e-02 -9.052480099e-01 1.537958813e-01 0.000000000e+00 0.000000000e+00 0.000000000e+00 0.000000000e+00
5.736000e+09 -8.716899224e-01 -1.590880160e-02 -9.053648353e-01 1.544368537e-01 0.000000000e+00 0.000000000e+00 0.000000000e+00 0.000000000e+00
5.758000e+09 -8.716776622e-01 -1.597489005e-02 -9.054822705e-01 1.550784230e-01 0.000000000e+00 0.000000000e+00 0.000000000e+00 0.000000000e+00
5.780000e+09 -8.716653382e-01 -1.604104005e-02 -9.056003175e-01 1.557205924e-01 0.000000000e+00 0.000000000e+00 0.000000000e+00 0.000000000e+00
5.802000e+09 -8.716529501e-01 -1.610725189e-02 -9.057189786e-01 1.563633646e-01 0.000000000e+00 0.000000000e+00 0.000000000e+00 0.000000000e+00
5.824000e+09 -8.716404977e-01 -1.617352589e-02 -9.058382560e-01 1.570067427e-01 0.000000000e+00 0.000000000e+00 0.000000000e+00 0.000000000e+00
5.846000e+09 -8.716279807e-01 -1.623986235e-02 -9.059581519e-01 1.576507296e-01 0.000000000e+00 0.000000000e+00 0.000000000e+00 0.000000000e+00
5.868000e+09 -8.716153990e-01 -1.630626157e-02 -9.060786686e-01 1.582953284e-01 0.000000000e+00 0.000000000e+00 0.000000000e+00 0.000000000e+00
5.890000e+09 -8.716027522e-01 -1.637272386e-02 -9.061998083e-01 1.589405418e-01 0.000000000e+00 0.000000000e+00 0.000000000e+00 0.000000000e+00
5.912000e+09 -8.715900403e-01 -1.643924953e-02 -9.063215732e-01 1.595863730e-01 0.000000000e+00 0.000000000e+00 0.000000000e+00 0.000000000e+00
5.934000e+09 -8.715772629e-01 -1.650583889e-02 -9.064439658e-01 1.602328249e-01 0.000000000e+00 0.000000000e+00 0.000000000e+00 0.000000000e+00
5.956000e+09 -8.715644199e-01 -1.657249224e-02 -9.065669881e-01 1.608799005e-01 0.000000000e+00 0.000000000e+00 0.000000000e+00 0.000000000e+00
5.978000e+09 -8.715515109e-01 -1.663920990e-02 -9.066906426e-01 1.615276028e-01 0.000000000e+00 0.000000000e+00 0.000000000e+00 0.000000000e+00
6.000000e+09 -8.715385358e-01 -1.670599218e-02 -9.068149316e-01 1.621759348e-01 0.000000000e+00 0.000000000e+00 0.000000000e+00 0.000000000e+00
