! rfsim (KiCad + openEMS)
# HZ S RI R 50
5.000000e+08 -5.479632630e-01 1.815691248e-02 8.006314341e-01 3.879541934e-01 0.000000000e+00 0.000000000e+00 0.000000000e+00 0.000000000e+00
5.100000e+08 -5.481335053e-01 1.847835061e-02 7.969904142e-01 3.948214216e-01 0.000000000e+00 0.000000000e+00 0.000000000e+00 0.000000000e+00
5.200000e+08 -5.483063502e-01 1.879750334e-02 7.932937324e-01 4.016397714e-01 0.000000000e+00 0.000000000e+00 0.000000000e+00 0.000000000e+00
5.300000e+08 -5.484817578e-01 1.911434330e-02 7.895422413e-01 4.084086574e-01 0.000000000e+00 0.000000000e+00 0.000000000e+00 0.000000000e+00
5.400000e+08 -5.486596880e-01 1.942884396e-02 7.857368001e-01 4.151275125e-01 0.000000000e+00 0.000000000e+00 0.000000000e+00 0.000000000e+00
5.500000e+08 -5.488401003e-01 1.974097966e-02 7.818782742e-01 4.217957878e-01 0.000000000e+00 0.000000000e+00 0.000000000e+00 0.000000000e+00
5.600000e+08 -5.490229540e-01 2.005072557e-02 7.779675346e-01 4.284129523e-01 0.000000000e+00 0.000000000e+00 0.000000000e+00 0.000000000e+00
5.700000e+08 -5.492082080e-01 2.035805772e-02 7.740054573e-01 4.349784933e-01 0.000000000e+00 0.000000000e+00 0.000000000e+00 0.000000000e+00
5.800000e+08 -5.493958213e-01 2.066295298e-02 7.699929235e-01 4.414919162e-01 0.000000000e+00 0.000000000e+00 0.000000000e+00 0.000000000e+00
5.900000e+08 -5.495857524e-01 2.096538906e-02 7.659308185e-01 4.479527445e-01 0.000000000e+00 0.000000000e+00 0.000000000e+00 0.000000000e+00
6.000000e+08 -5.497779597e-01 2.126534455e-02 7.618200314e-01 4.543605200e-01 0.000000000e+00 0.000000000e+00 0.000000000e+00 0.000000000e+00
6.100000e+08 -5.499724016e-01 2.156279886e-02 7.576614552e-01 4.607148025e-01 0.000000000e+00 0.000000000e+00 0.000000000e+00 0.000000000e+00
6.200000e+08 -5.501690360e-01 2.185773224e-02 7.534559855e-01 4.670151697e-01 0.000000000e+00 0.000000000e+00 0.000000000e+00 0.000000000e+00
6.300000e+08 -5.503678210e-01 2.215012579e-02 7.492045210e-01 4.732612176e-01 0.000000000e+00 0.000000000e+00 0.000000000e+00 0.000000000e+00
6.400000e+08 -5.505687146e-01 2.243996147e-02 7.449079624e-01 4.794525599e-01 0.000000000e+00 0.000000000e+00 0.000000000e+00 0.000000000e+00
6.500000e+08 -5.507716744e-01 2.272722204e-02 7.405672122e-01 4.855888284e-01 0.000000000e+00 0.000000000e+00 0.000000000e+00 0.000000000e+00
6.600000e+08 -5.509766582e-01 2.301189110e-02 7.361831744e-01 4.916696724e-01 0.000000000e+00 0.000000000e+00 0.000000000e+00 0.000000000e+00
6.700000e+08 -5.511836237e-01 2.329395311e-02 7.317567542e-01 4.976947591e-01 0.000000000e+00 0.000000000e+00 0.000000000e+00 0.000000000e+00
6.800000e+08 -5.513925286e-01 2.357339331e-02 7.272888572e-01 5.036637733e-01 0.000000000e+00 0.000000000e+00 0.000000000e+00 0.000000000e+00
6.900000e+08 -5.516033304e-01 2.385019777e-02 7.227803894e-01 5.095764171e-01 0.000000000e+00 0.000000000e+00 0.000000000e+00 0.000000000e+00
7.000000e+08 -5.518159869e-01 2.412435339e-02 7.182322566e-01 5.154324101e-01 0.000000000e+00 0.000000000e+00 0.000000000e+00 0.000000000e+00
7.100000e+08 -5.520304557e-01 2.439584786e-02 7.136453642e-01 5.212314892e-01 0.000000000e+00 0.000000000e+00 0.000000000e+00 0.000000000e+00
7.200000e+08 -5.522466944e-01 2.466466966e-02 7.090206167e-01 5.269734081e-01 0.000000000e+00 0.000000000e+00 0.000000000e+00 0.000000000e+00
7.300000e+08 -5.524646610e-01 2.493080807e-02 7.043589174e-01 5.326579377e-01 0.000000000e+00 0.000000000e+00 0.000000000e+00 0.000000000e+00
7.400000e+08 -5.526843132e-01 2.519425317e-02 6.996611680e-01 5.382848657e-01 0.000000000e+00 0.000000000e+00 0.000000000e+00 0.000000000e+00
7.500000e+08 -5.529056088e-01 2.545499580e-02 6.949282683e-01 5.438539962e-01 0.000000000e+00 0.000000000e+00 0.000000000e+00 0.000000000e+00
7.600000e+08 -5.531285061e-01 2.571302758e-02 6.901611159e-01 5.493651499e-01 0.000000000e+00 0.000000000e+00 0.000000000e+00 0.000000000e+00
7.700000e+08 -5.533529631e-01 2.596834088e-02 6.853606058e-01 5.548181639e-01 0.000000000e+00 0.000000000e+00 0.000000000e+00 0.000000000e+00
7.800000e+08 -5.535789381e-01 2.622092882e-02 6.805276301e-01 5.602128912e-01 0.000000000e+00 0.000000000e+00 0.000000000e+00 0.000000000e+00
7.900000e+08 -5.538063895e-01 2.647078528e-02 6.756630776e-01 5.655492007e-01 0.000000000e+00 0.000000000e+00 0.000000000e+00 0.000000000e+00
8.000000e+08 -5.540352760e-01 2.671790488e-02 6.707678337e-01 5.708269773e-01 0.000000000e+00 0.000000000e+00 0.000000000e+00 0.000000000e+00
8.100000e+08 -5.542655563e-01 2.696228293e-02 6.658427799e-01 5.760461210e-01 0.000000000e+00 0.000000000e+00 0.000000000e+00 0.000000000e+00
8.200000e+08 -5.544971894e-01 2.720391549e-02 6.608887937e-01 5.812065475e-01 0.000000000e+00 0.000000000e+00 0.000000000e+00 0.000000000e+00
8.300000e+08 -5.547301345e-01 2.744279931e-02 6.559067480e-01 5.863081873e-01 0.000000000e+00 0.000000000e+00 0.000000000e+00 0.000000000e+00
8.400000e+08 -5.549643510e-01 2.767893185e-02 6.508975113e-01 5.913509859e-01 0.000000000e+00 0.000000000e+00 0.000000000e+00 0.000000000e+00
8.500000e+08 -5.551997985e-01 2.791231123e-02 6.458619469e-01 5.963349036e-01 0.000000000e+00 0.000000000e+00 0.000000000e+00 0.000000000e+00
8.600000e+08 -5.554364368e-01 2.814293627e-02 6.408009130e-01 6.012599147e-01 0.000000000e+00 0.000000000e+00 0.000000000e+00 0.000000000e+00
8.700000e+08 -5.556742262e-01 2.837080645e-02 6.357152626e-01 6.061260083e-01 0.000000000e+00 0.000000000e+00 0.000000000e+00 0.000000000e+00
8.800000e+08 -5.559131269e-01 2.859592189e-02 6.306058425e-01 6.109331870e-01 0.000000000e+00 0.000000000e+00 0.000000000e+00 0.000000000e+00
8.900000e+08 -5.561530997e-01 2.881828335e-02 6.254734940e-01 6.156814673e-01 0.000000000e+00 0.000000000e+00 0.000000000e+00 0.000000000e+00
9.000000e+08 -5.563941055e-01 2.903789225e-02 6.203190522e-01 6.203708793e-01 0.000000000e+00 0.000000000e+00 0.000000000e+00 0.000000000e+00
9.100000e+08 -5.566361056e-01 2.925475060e-02 6.151433456e-01 6.250014661e-01 0.000000000e+00 0.000000000e+00 0.000000000e+00 0.000000000e+00
9.200000e+08 -5.568790616e-01 2.946886103e-02 6.099471963e-01 6.295732840e-01 0.000000000e+00 0.000000000e+00 0.000000000e+00 0.000000000e+00
9.300000e+08 -5.571229352e-01 2.968022677e-02 6.047314196e-01 6.340864021e-01 0.000000000e+00 0.000000000e+00 0.000000000e+00 0.000000000e+00
9.400000e+08 -5.573676887e-01 2.988885162e-02 5.994968238e-01 6.385409018e-01 0.000000000e+00 0.000000000e+00 0.000000000e+00 0.000000000e+00
9.500000e+08 -5.576132847e-01 3.009473997e-02 5.942442102e-01 6.429368769e-01 0.000000000e+00 0.000000000e+00 0.000000000e+00 0.000000000e+00
9.600000e+08 -5.578596861e-01 3.029789677e-02 5.889743724e-01 6.472744332e-01 0.000000000e+00 0.000000000e+00 0.000000000e+00 0.000000000e+00
9.700000e+08 -5.581068560e-01 3.049832751e-02 5.836880969e-01 6.515536883e-01 0.000000000e+00 0.000000000e+00 0.000000000e+00 0.000000000e+00
9.800000e+08 -5.583547580e-01 3.069603822e-02 5.783861623e-01 6.557747711e-01 0.000000000e+00 0.000000000e+00 0.000000000e+00 0.000000000e+00
9.900000e+08 -5.586033561e-01 3.089103545e-02 5.730693395e-01 6.599378218e-01 0.000000000e+00 0.000000000e+00 0.000000000e+00 0.000000000e+00
1.000000e+09 -5.588526147e-01 3.108332628e-02 5.677383912e-01 6.640429918e-01 0.000000000e+00 0.000000000e+00 0.000000000e+00 0.000000000e+00
1.010000e+09 -5.591024985e-01 3.127291829e-02 5.623940724e-01 6.680904430e-01 0.000000000e+00 0.000000000e+00 0.000000000e+00 0.000000000e+00
1.020000e+09 -5.593529724e-01 3.145981952e-02 5.570371295e-01 6.720803477e-01 0.000000000e+00 0.000000000e+00 0.000000000e+00 0.000000000e+00
1.030000e+09 -5.596040021e-01 3.164403852e-02 5.516683007e-01 6.760128886e-01 0.000000000e+00 0.000000000e+00 0.000000000e+00 0.000000000e+00
1.040000e+09 -5.598555534e-01 3.182558428e-02 5.462883157e-01 6.798882583e-01 0.000000000e+00 0.000000000e+00 0.000000000e+00 0.000000000e+00
1.050000e+09 -5.601075926e-01 3.200446628e-02 5.408978956e-01 6.837066590e-01 0.000000000e+00 0.000000000e+00 0.000000000e+00 0.000000000e+00
1.060000e+09 -5.603600863e-01 3.218069439e-02 5.354977529e-01 6.874683023e-01 0.000000000e+00 0.000000000e+00 0.000000000e+00 0.000000000e+00
1.070000e+09 -5.606130017e-01 3.235427896e-02 5.300885913e-01 6.911734091e-01 0.000000000e+00 0.000000000e+00 0.000000000e+00 0.000000000e+00
1.080000e+09 -5.608663062e-01 3.252523071e-02 5.246711055e-01 6.948222091e-01 0.000000000e+00 0.000000000e+00 0.000000000e+00 0.000000000e+00
1.090000e+09 -5.611199679e-01 3.269356080e-02 5.192459815e-01 6.984149408e-01 0.000000000e+00 0.000000000e+00 0.000000000e+00 0.000000000e+00
1.100000e+09 -5.613739550e-01 3.285928077e-02 5.138138959e-01 7.019518510e-01 0.000000000e+00 0.000000000e+00 0.000000000e+00 0.000000000e+00
1.110000e+09 -5.616282363e-01 3.302240254e-02 5.083755167e-01 7.054331947e-01 0.000000000e+00 0.000000000e+00 0.000000000e+00 0.000000000e+00
1.120000e+09 -5.618827811e-01 3.318293840e-02 5.029315023e-01 7.088592347e-01 0.000000000e+00 0.000000000e+00 0.000000000e+00 0.000000000e+00
1.130000e+09 -5.621375589e-01 3.334090100e-02 4.974825022e-01 7.122302416e-01 0.000000000e+00 0.000000000e+00 0.000000000e+00 0.000000000e+00
1.140000e+09 -5.623925398e-01 3.349630334e-02 4.920291566e-01 7.155464933e-01 0.000000000e+00 0.000000000e+00 0.000000000e+00 0.000000000e+00
1.150000e+09 -5.626476944e-01 3.364915874e-02 4.865720963e-01 7.188082749e-01 0.000000000e+00 0.000000000e+00 0.000000000e+00 0.000000000e+00
1.160000e+09 -5.629029936e-01 3.379948087e-02 4.811119427e-01 7.220158784e-01 0.000000000e+00 0.000000000e+00 0.000000000e+00 0.000000000e+00
1.170000e+09 -5.631584086e-01 3.394728368e-02 4.756493082e-01 7.251696025e-01 0.000000000e+00 0.000000000e+00 0.000000000e+00 0.000000000e+00
1.180000e+09 -5.634139115e-01 3.409258145e-02 4.701847954e-01 7.282697525e-01 0.000000000e+00 0.000000000e+00 0.000000000e+00 0.000000000e+00
1.190000e+09 -5.636694743e-01 3.423538873e-02 4.647189978e-01 7.313166395e-01 0.000000000e+00 0.000000000e+00 0.000000000e+00 0.000000000e+00
1.200000e+09 -5.639250699e-01 3.437572036e-02 4.592524993e-01 7.343105809e-01 0.000000000e+00 0.000000000e+00 0.000000000e+00 0.000000000e+00
1.210000e+09 -5.641806713e-01 3.451359144e-02 4.537858745e-01 7.372518998e-01 0.000000000e+00 0.000000000e+00 0.000000000e+00 0.000000000e+00
1.220000e+09 -5.644362521e-01 3.464901735e-02 4.483196884e-01 7.401409246e-01 0.000000000e+00 0.000000000e+00 0.000000000e+00 0.000000000e+00
1.230000e+09 -5.646917863e-01 3.478201368e-02 4.428544967e-01 7.429779893e-01 0.000000000e+00 0.000000000e+00 0.000000000e+00 0.000000000e+00
1.240000e+09 -5.649472484e-01 3.491259628e-02 4.373908457e-01 7.457634327e-01 0.000000000e+00 0.000000000e+00 0.000000000e+00 0.000000000e+00
1.250000e+09 -5.652026133e-01 3.504078123e-02 4.319292722e-01 7.484975986e-01 0.000000000e+00 0.000000000e+00 0.000000000e+00 0.000000000e+00
1.260000e+09 -5.654578563e-01 3.516658482e-02 4.264703037e-01 7.511808352e-01 0.000000000e+00 0.000000000e+00 0.000000000e+00 0.000000000e+00
1.270000e+09 -5.657129531e-01 3.529002354e-02 4.210144581e-01 7.538134954e-01 0.000000000e+00 0.000000000e+00 0.000000000e+00 0.000000000e+00
1.280000e+09 -5.659678801e-01 3.541111408e-02 4.155622442e-01 7.563959362e-01 0.000000000e+00 0.000000000e+00 0.000000000e+00 0.000000000e+00
1.290000e+09 -5.662226139e-01 3.552987332e-02 4.101141614e-01 7.589285184e-01 0.000000000e+00 0.000000000e+00 0.000000000e+00 0.000000000e+00
1.300000e+09 -5.664771315e-01 3.564631831e-02 4.046706998e-01 7.614116068e-01 0.000000000e+00 0.000000000e+00 0.000000000e+00 0.000000000e+00
1.310000e+09 -5.667314104e-01 3.576046629e-02 3.992323401e-01 7.638455698e-01 0.000000000e+00 0.000000000e+00 0.000000000e+00 0.000000000e+00
1.320000e+09 -5.669854286e-01 3.587233463e-02 3.937995540e-01 7.662307790e-01 0.000000000e+00 0.000000000e+00 0.000000000e+00 0.000000000e+00
1.330000e+09 -5.672391645e-01 3.598194085e-02 3.883728038e-01 7.685676093e-01 0.000000000e+00 0.000000000e+00 0.000000000e+00 0.000000000e+00
1.340000e+09 -5.674925969e-01 3.608930264e-02 3.829525429e-01 7.708564388e-01 0.000000000e+00 0.000000000e+00 0.000000000e+00 0.000000000e+00
1.350000e+09 -5.677457050e-01 3.619443780e-02 3.775392154e-01 7.730976480e-01 0.000000000e+00 0.000000000e+00 0.000000000e+00 0.000000000e+00
1.360000e+09 -5.679984684e-01 3.629736425e-02 3.721332566e-01 7.752916204e-01 0.000000000e+00 0.000000000e+00 0.000000000e+00 0.000000000e+00
1.370000e+09 -5.682508673e-01 3.639810004e-02 3.667350926e-01 7.774387418e-01 0.000000000e+00 0.000000000e+00 0.000000000e+00 0.000000000e+00
1.380000e+09 -5.685028821e-01 3.649666330e-02 3.613451406e-01 7.795394003e-01 0.000000000e+00 0.000000000e+00 0.000000000e+00 0.000000000e+00
1.390000e+09 -5.687544937e-01 3.659307230e-02 3.559638091e-01 7.815939859e-01 0.000000000e+00 0.000000000e+00 0.000000000e+00 0.000000000e+00
1.400000e+09 -5.690056835e-01 3.668734535e-02 3.505914978e-01 7.836028910e-01 0.000000000e+00 0.000000000e+00 0.000000000e+00 0.000000000e+00
1.410000e+09 -5.692564331e-01 3.677950089e-02 3.452285974e-01 7.855665093e-01 0.000000000e+00 0.000000000e+00 0.000000000e+00 0.000000000e+00
1.420000e+09 -5.695067246e-01 3.686955741e-02 3.398754903e-01 7.874852364e-01 0.000000000e+00 0.000000000e+00 0.000000000e+00 0.000000000e+00
1.430000e+09 -5.697565407e-01 3.695753347e-02 3.345325501e-01 7.893594691e-01 0.000000000e+00 0.000000000e+00 0.000000000e+00 0.000000000e+00
1.440000e+09 -5.700058642e-01 3.704344768e-02 3.292001420e-01 7.911896058e-01 0.000000000e+00 0.000000000e+00 0.000000000e+00 0.000000000e+00
1.450000e+09 -5.702546785e-01 3.712731873e-02 3.238786225e-01 7.929760457e-01 0.000000000e+00 0.000000000e+00 0.000000000e+00 0.000000000e+00
1.460000e+09 -5.705029673e-01 3.720916534e-02 3.185683401e-01 7.947191893e-01 0.000000000e+00 0.000000000e+00 0.000000000e+00 0.000000000e+00
1.470000e+09 -5.707507146e-01 3.728900626e-02 3.132696348e-01 7.964194377e-01 0.000000000e+00 0.000000000e+00 0.000000000e+00 0.000000000e+00
1.480000e+09 -5.709979049e-01 3.736686030e-02 3.079828384e-01 7.980771927e-01 0.000000000e+00 0.000000000e+00 0.000000000e+00 0.000000000e+00
1.490000e+09 -5.712445232e-01 3.744274626e-02 3.027082747e-01 7.996928569e-01 0.000000000e+00 0.000000000e+00 0.000000000e+00 0.000000000e+00
1.500000e+09 -5.714905546e-01 3.751668299e-02 2.974462594e-01 8.012668331e-01 0.000000000e+00 0.000000000e+00 0.000000000e+00 0.000000000e+00
1.510000e+09 -5.717359847e-01 3.758868935e-02 2.921971001e-01 8.027995246e-01 0.000000000e+00 0.000000000e+00 0.000000000e+00 0.000000000e+00
1.520000e+09 -5.719807996e-01 3.765878419e-02 2.869610968e-01 8.042913346e-01 0.000000000e+00 0.000000000e+00 0.000000000e+00 0.000000000e+00
1.530000e+09 -5.722249856e-01 3.772698638e-02 2.817385415e-01 8.057426665e-01 0.000000000e+00 0.000000000e+00 0.000000000e+00 0.000000000e+00
1.540000e+09 -5.724685294e-01 3.779331478e-02 2.765297186e-01 8.071539237e-01 0.000000000e+00 0.000000000e+00 0.000000000e+00 0.000000000e+00
1.550000e+09 -5.727114180e-01 3.785778824e-02 2.713349050e-01 8.085255092e-01 0.000000000e+00 0.000000000e+00 0.000000000e+00 0.000000000e+00
1.560000e+09 -5.729536388e-01 3.792042559e-02 2.661543698e-01 8.098578259e-01 0.000000000e+00 0.000000000e+00 0.000000000e+00 0.000000000e+00
1.570000e+09 -5.731951796e-01 3.798124566e-02 2.609883750e-01 8.111512762e-01 0.000000000e+00 0.000000000e+00 0.000000000e+00 0.000000000e+00
1.580000e+09 -5.734360286e-01 3.804026723e-02 2.558371751e-01 8.124062619e-01 0.000000000e+00 0.000000000e+00 0.000000000e+00 0.000000000e+00
1.590000e+09 -5.736761740e-01 3.809750907e-02 2.507010174e-01 8.136231842e-01 0.000000000e+00 0.000000000e+00 0.000000000e+00 0.000000000e+00
1.600000e+09 -5.739156048e-01 3.815298990e-02 2.455801421e-01 8.148024437e-01 0.000000000e+00 0.000000000e+00 0.000000000e+00 0.000000000e+00
1.610000e+09 -5.741543100e-01 3.820672842e-02 2.404747822e-01 8.159444399e-01 0.000000000e+00 0.000000000e+00 0.000000000e+00 0.000000000e+00
1.620000e+09 -5.743922790e-01 3.825874326e-02 2.353851639e-01 8.170495715e-01 0.000000000e+00 0.000000000e+00 0.000000000e+00 0.000000000e+00
1.630000e+09 -5.746295016e-01 3.830905304e-02 2.303115067e-01 8.181182364e-01 0.000000000e+00 0.000000000e+00 0.000000000e+00 0.000000000e+00
1.640000e+09 -5.748659678e-01 3.835767628e-02 2.252540228e-01 8.191508310e-01 0.000000000e+00 0.000000000e+00 0.000000000e+00 0.000000000e+00
1.650000e+09 -5.751016680e-01 3.840463149e-02 2.202129184e-01 8.201477507e-01 0.000000000e+00 0.000000000e+00 0.000000000e+00 0.000000000e+00
1.660000e+09 -5.753365929e-01 3.844993709e-02 2.151883926e-01 8.211093897e-01 0.000000000e+00 0.000000000e+00 0.000000000e+00 0.000000000e+00
1.670000e+09 -5.755707335e-01 3.849361144e-02 2.101806383e-01 8.220361407e-01 0.000000000e+00 0.000000000e+00 0.000000000e+00 0.000000000e+00
1.680000e+09 -5.758040810e-01 3.853567285e-02 2.051898419e-01 8.229283949e-01 0.000000000e+00 0.000000000e+00 0.000000000e+00 0.000000000e+00
1.690000e+09 -5.760366271e-01 3.857613955e-02 2.002161836e-01 8.237865421e-01 0.000000000e+00 0.000000000e+00 0.000000000e+00 0.000000000e+00
1.700000e+09 -5.762683636e-01 3.861502967e-02 1.952598374e-01 8.246109705e-01 0.000000000e+00 0.000000000e+00 0.000000000e+00 0.000000000e+00
1.710000e+09 -5.764992826e-01 3.865236131e-02 1.903209712e-01 8.254020667e-01 0.000000000e+00 0.000000000e+00 0.000000000e+00 0.000000000e+00
1.720000e+09 -5.767293766e-01 3.868815245e-02 1.853997468e-01 8.261602154e-01 0.000000000e+00 0.000000000e+00 0.000000000e+00 0.000000000e+00
1.730000e+09 -5.769586383e-01 3.872242101e-02 1.804963202e-01 8.268857996e-01 0.000000000e+00 0.000000000e+00 0.000000000e+00 0.000000000e+00
1.740000e+09 -5.771870606e-01 3.875518480e-02 1.756108417e-01 8.275792004e-01 0.000000000e+00 0.000000000e+00 0.000000000e+00 0.000000000e+00
1.750000e+09 -5.774146369e-01 3.878646157e-02 1.707434556e-01 8.282407972e-01 0.000000000e+00 0.000000000e+00 0.000000000e+00 0.000000000e+00
1.760000e+09 -5.776413606e-01 3.881626895e-02 1.658943008e-01 8.288709670e-01 0.000000000e+00 0.000000000e+00 0.000000000e+00 0.000000000e+00
1.770000e+09 -5.778672254e-01 3.884462449e-02 1.610635107e-01 8.294700852e-01 0.000000000e+00 0.000000000e+00 0.000000000e+00 0.000000000e+00
1.780000e+09 -5.780922255e-01 3.887154564e-02 1.562512131e-01 8.300385250e-01 0.000000000e+00 0.000000000e+00 0.000000000e+00 0.000000000e+00
1.790000e+09 -5.783163550e-01 3.889704975e-02 1.514575306e-01 8.305766572e-01 0.000000000e+00 0.000000000e+00 0.000000000e+00 0.000000000e+00
1.800000e+09 -5.785396085e-01 3.892115408e-02 1.466825806e-01 8.310848509e-01 0.000000000e+00 0.000000000e+00 0.000000000e+00 0.000000000e+00
1.810000e+09 -5.787619808e-01 3.894387575e-02 1.419264751e-01 8.315634725e-01 0.000000000e+00 0.000000000e+00 0.000000000e+00 0.000000000e+00
1.820000e+09 -5.789834668e-01 3.896523182e-02 1.371893213e-01 8.320128864e-01 0.000000000e+00 0.000000000e+00 0.000000000e+00 0.000000000e+00
1.830000e+09 -5.792040618e-01 3.898523921e-02 1.324712213e-01 8.324334546e-01 0.000000000e+00 0.000000000e+00 0.000000000e+00 0.000000000e+00
1.840000e+09 -5.794237612e-01 3.900391474e-02 1.277722724e-01 8.328255370e-01 0.000000000e+00 0.000000000e+00 0.000000000e+00 0.000000000e+00
1.850000e+09 -5.796425606e-01 3.902127512e-02 1.230925670e-01 8.331894906e-01 0.000000000e+00 0.000000000e+00 0.000000000e+00 0.000000000e+00
1.860000e+09 -5.798604561e-01 3.903733695e-02 1.184321928e-01 8.335256705e-01 0.000000000e+00 0.000000000e+00 0.000000000e+00 0.000000000e+00
1.870000e+09 -5.800774437e-01 3.905211670e-02 1.137912331e-01 8.338344290e-01 0.000000000e+00 0.000000000e+00 0.000000000e+00 0.000000000e+00
1.880000e+09 -5.802935197e-01 3.906563074e-02 1.091697665e-01 8.341161161e-01 0.000000000e+00 0.000000000e+00 0.000000000e+00 0.000000000e+00
1.890000e+09 -5.805086807e-01 3.907789533e-02 1.045678671e-01 8.343710792e-01 0.000000000e+00 0.000000000e+00 0.000000000e+00 0.000000000e+00
1.900000e+09 -5.807229233e-01 3.908892657e-02 9.998560486e-02 8.345996631e-01 0.000000000e+00 0.000000000e+00 0.000000000e+00 0.000000000e+00
1.910000e+09 -5.809362447e-01 3.909874049e-02 9.542304522e-02 8.348022102e-01 0.000000000e+00 0.000000000e+00 0.000000000e+00 0.000000000e+00
1.920000e+09 -5.811486417e-01 3.910735297e-02 9.088024963e-02 8.349790602e-01 0.000000000e+00 0.000000000e+00 0.000000000e+00 0.000000000e+00
1.930000e+09 -5.813601119e-01 3.911477977e-02 8.635727537e-02 8.351305502e-01 0.000000000e+00 0.000000000e+00 0.000000000e+00 0.000000000e+00
1.940000e+09 -5.815706526e-01 3.912103653e-02 8.185417571e-02 8.352570145e-01 0.000000000e+00 0.000000000e+00 0.000000000e+00 0.000000000e+00
1.950000e+09 -5.817802617e-01 3.912613876e-02 7.737099998e-02 8.353587850e-01 0.000000000e+00 0.000000000e+00 0.000000000e+00 0.000000000e+00
1.960000e+09 -5.819889369e-01 3.913010187e-02 7.290779368e-02 8.354361909e-01 0.000000000e+00 0.000000000e+00 0.000000000e+00 0.000000000e+00
1.970000e+09 -5.821966763e-01 3.913294110e-02 6.846459851e-02 8.354895584e-01 0.000000000e+00 0.000000000e+00 0.000000000e+00 0.000000000e+00
1.980000e+09 -5.824034782e-01 3.913467160e-02 6.404145249e-02 8.355192113e-01 0.000000000e+00 0.000000000e+00 0.000000000e+00 0.000000000e+00
1.990000e+09 -5.826093409e-01 3.913530838e-02 5.963839003e-02 8.355254707e-01 0.000000000e+00 0.000000000e+00 0.000000000e+00 0.000000000e+00
2.000000e+09 -5.828142630e-01 3.913486632e-02 5.525544198e-02 8.355086546e-01 0.000000000e+00 0.000000000e+00 0.000000000e+00 0.000000000e+00
2.010000e+09 -5.830182432e-01 3.913336017e-02 5.089263576e-02 8.354690787e-01 0.000000000e+00 0.000000000e+00 0.000000000e+00 0.000000000e+00
2.020000e+09 -5.832212804e-01 3.913080456e-02 4.654999536e-02 8.354070556e-01 0.000000000e+00 0.000000000e+00 0.000000000e+00 0.000000000e+00
2.030000e+09 -5.834233736e-01 3.912721398e-02 4.222754151e-02 8.353228953e-01 0.000000000e+00 0.000000000e+00 0.000000000e+00 0.000000000e+00
2.040000e+09 -5.836245221e-01 3.912260280e-02 3.792529166e-02 8.352169050e-01 0.000000000e+00 0.000000000e+00 0.000000000e+00 0.000000000e+00
2.050000e+09 -5.838247251e-01 3.911698525e-02 3.364326012e-02 8.350893892e-01 0.000000000e+00 0.000000000e+00 0.000000000e+00 0.000000000e+00
2.060000e+09 -5.840239821e-01 3.911037544e-02 2.938145810e-02 8.349406494e-01 0.000000000e+00 0.000000000e+00 0.000000000e+00 0.000000000e+00
2.070000e+09 -5.842222927e-01 3.910278734e-02 2.513989377e-02 8.347709845e-01 0.000000000e+00 0.000000000e+00 0.000000000e+00 0.000000000e+00
2.080000e+09 -5.844196568e-01 3.909423480e-02 2.091857237e-02 8.345806905e-01 0.000000000e+00 0.000000000e+00 0.000000000e+00 0.000000000e+00
2.090000e+09 -5.846160741e-01 3.908473153e-02 1.671749625e-02 8.343700607e-01 0.000000000e+00 0.000000000e+00 0.000000000e+00 0.000000000e+00
2.100000e+09 -5.848115447e-01 3.907429111e-02 1.253666493e-02 8.341393856e-01 0.000000000e+00 0.000000000e+00 0.000000000e+00 0.000000000e+00
2.110000e+09 -5.850060688e-01 3.906292699e-02 8.376075211e-03 8.338889527e-01 0.000000000e+00 0.000000000e+00 0.000000000e+00 0.000000000e+00
2.120000e+09 -5.851996467e-01 3.905065250e-02 4.235721175e-03 8.336190471e-01 0.000000000e+00 0.000000000e+00 0.000000000e+00 0.000000000e+00
2.130000e+09 -5.853922787e-01 3.903748082e-02 1.155943058e-04 8.333299508e-01 0.000000000e+00 0.000000000e+00 0.000000000e+00 0.000000000e+00
2.140000e+09 -5.855839653e-01 3.902342503e-02 -3.984316471e-03 8.330219429e-01 0.000000000e+00 0.000000000e+00 0.000000000e+00 0.000000000e+00
2.150000e+09 -5.857747073e-01 3.900849803e-02 -8.064024723e-03 8.326953002e-01 0.000000000e+00 0.000000000e+00 0.000000000e+00 0.000000000e+00
2.160000e+09 -5.859645053e-01 3.899271265e-02 -1.212354645e-02 8.323502963e-01 0.000000000e+00 0.000000000e+00 0.000000000e+00 0.000000000e+00
2.170000e+09 -5.861533602e-01 3.897608154e-02 -1.616290000e-02 8.319872021e-01 0.000000000e+00 0.000000000e+00 0.000000000e+00 0.000000000e+00
2.180000e+09 -5.863412730e-01 3.895861724e-02 -2.018210607e-02 8.316062858e-01 0.000000000e+00 0.000000000e+00 0.000000000e+00 0.000000000e+00
2.190000e+09 -5.865282448e-01 3.894033218e-02 -2.418118756e-02 8.312078129e-01 0.000000000e+00 0.000000000e+00 0.000000000e+00 0.000000000e+00
2.200000e+09 -5.867142767e-01 3.892123863e-02 -2.816016959e-02 8.307920460e-01 0.000000000e+00 0.000000000e+00 0.000000000e+00 0.000000000e+00
2.210000e+09 -5.868993700e-01 3.890134874e-02 -3.211907941e-02 8.303592451e-01 0.000000000e+00 0.000000000e+00 0.000000000e+00 0.000000000e+00
2.220000e+09 -5.870835260e-01 3.888067454e-02 -3.605794634e-02 8.299096673e-01 0.000000000e+00 0.000000000e+00 0.000000000e+00 0.000000000e+00
2.230000e+09 -5.872667463e-01 3.885922794e-02 -3.997680171e-02 8.294435671e-01 0.000000000e+00 0.000000000e+00 0.000000000e+00 0.000000000e+00
2.240000e+09 -5.874490324e-01 3.883702069e-02 -4.387567885e-02 8.289611962e-01 0.000000000e+00 0.000000000e+00 0.000000000e+00 0.000000000e+00
2.250000e+09 -5.876303860e-01 3.881406446e-02 -4.775461297e-02 8.284628037e-01 0.000000000e+00 0.000000000e+00 0.000000000e+00 0.000000000e+00
2.260000e+09 -5.878108088e-01 3.879037075e-02 -5.161364115e-02 8.279486360e-01 0.000000000e+00 0.000000000e+00 0.000000000e+00 0.000000000e+00
2.270000e+09 -5.879903025e-01 3.876595096e-02 -5.545280230e-02 8.274189365e-01 0.000000000e+00 0.000000000e+00 0.000000000e+00 0.000000000e+00
2.280000e+09 -5.881688692e-01 3.874081636e-02 -5.927213705e-02 8.268739465e-01 0.000000000e+00 0.000000000e+00 0.000000000e+00 0.000000000e+00
2.290000e+09 -5.883465108e-01 3.871497809e-02 -6.307168777e-02 8.263139041e-01 0.000000000e+00 0.000000000e+00 0.000000000e+00 0.000000000e+00
2.300000e+09 -5.885232293e-01 3.868844717e-02 -6.685149847e-02 8.257390451e-01 0.000000000e+00 0.000000000e+00 0.000000000e+00 0.000000000e+00
2.310000e+09 -5.886990270e-01 3.866123451e-02 -7.061161478e-02 8.251496025e-01 0.000000000e+00 0.000000000e+00 0.000000000e+00 0.000000000e+00
2.320000e+09 -5.888739059e-01 3.863335087e-02 -7.435208389e-02 8.245458067e-01 0.000000000e+00 0.000000000e+00 0.000000000e+00 0.000000000e+00
2.330000e+09 -5.890478684e-01 3.860480691e-02 -7.807295451e-02 8.239278856e-01 0.000000000e+00 0.000000000e+00 0.000000000e+00 0.000000000e+00
2.340000e+09 -5.892209168e-01 3.857561316e-02 -8.177427680e-02 8.232960645e-01 0.000000000e+00 0.000000000e+00 0.000000000e+00 0.000000000e+00
2.350000e+09 -5.893930536e-01 3.854578003e-02 -8.545610238e-02 8.226505659e-01 0.000000000e+00 0.000000000e+00 0.000000000e+00 0.000000000e+00
2.360000e+09 -5.895642812e-01 3.851531781e-02 -8.911848422e-02 8.219916100e-01 0.000000000e+00 0.000000000e+00 0.000000000e+00 0.000000000e+00
2.370000e+09 -5.897346022e-01 3.848423669e-02 -9.276147665e-02 8.213194145e-01 0.000000000e+00 0.000000000e+00 0.000000000e+00 0.000000000e+00
2.380000e+09 -5.899040191e-01 3.845254671e-02 -9.638513529e-02 8.206341942e-01 0.000000000e+00 0.000000000e+00 0.000000000e+00 0.000000000e+00
2.390000e+09 -5.900725347e-01 3.842025781e-02 -9.998951701e-02 8.199361619e-01 0.000000000e+00 0.000000000e+00 0.000000000e+00 0.000000000e+00
2.400000e+09 -5.902401516e-01 3.838737982e-02 -1.035746799e-01 8.192255274e-01 0.000000000e+00 0.000000000e+00 0.000000000e+00 0.000000000e+00
2.410000e+09 -5.904068726e-01 3.835392243e-02 -1.071406832e-01 8.185024985e-01 0.000000000e+00 0.000000000e+00 0.000000000e+00 0.000000000e+00
2.420000e+09 -5.905727006e-01 3.831989524e-02 -1.106875873e-01 8.177672802e-01 0.000000000e+00 0.000000000e+00 0.000000000e+00 0.000000000e+00
2.430000e+09 -5.907376384e-01 3.828530774e-02 -1.142154538e-01 8.170200752e-01 0.000000000e+00 0.000000000e+00 0.000000000e+00 0.000000000e+00
2.440000e+09 -5.909016889e-01 3.825016927e-02 -1.177243451e-01 8.162610837e-01 0.000000000e+00 0.000000000e+00 0.000000000e+00 0.000000000e+00
2.450000e+09 -5.910648552e-01 3.821448909e-02 -1.212143249e-01 8.154905037e-01 0.000000000e+00 0.000000000e+00 0.000000000e+00 0.000000000e+00
2.460000e+09 -5.912271402e-01 3.817827635e-02 -1.246854576e-01 8.147085306e-01 0.000000000e+00 0.000000000e+00 0.000000000e+00 0.000000000e+00
2.470000e+09 -5.913885471e-01 3.814154007e-02 -1.281378089e-01 8.139153574e-01 0.000000000e+00 0.000000000e+00 0.000000000e+00 0.000000000e+00
2.480000e+09 -5.915490788e-01 3.810428916e-02 -1.315714451e-01 8.131111750e-01 0.000000000e+00 0.000000000e+00 0.000000000e+00 0.000000000e+00
2.490000e+09 -5.917087386e-01 3.806653245e-02 -1.349864335e-01 8.122961718e-01 0.000000000e+00 0.000000000e+00 0.000000000e+00 0.000000000e+00
2.500000e+09 -5.918675297e-01 3.802827863e-02 -1.383828423e-01 8.114705339e-01 0.000000000e+00 0.000000000e+00 0.000000000e+00 0.000000000e+00
2.510000e+09 -5.920254553e-01 3.798953629e-02 -1.417607404e-01 8.106344452e-01 0.000000000e+00 0.000000000e+00 0.000000000e+00 0.000000000e+00
2.520000e+09 -5.921825186e-01 3.795031394e-02 -1.451201977e-01 8.097880871e-01 0.000000000e+00 0.000000000e+00 0.000000000e+00 0.000000000e+00
2.530000e+09 -5.923387229e-01 3.791061994e-02 -1.484612845e-01 8.089316389e-01 0.000000000e+00 0.000000000e+00 0.000000000e+00 0.000000000e+00
2.540000e+09 -5.924940717e-01 3.787046258e-02 -1.517840722e-01 8.080652779e-01 0.000000000e+00 0.000000000e+00 0.000000000e+00 0.000000000e+00
2.550000e+09 -5.926485681e-01 3.782985003e-02 -1.550886326e-01 8.071891787e-01 0.000000000e+00 0.000000000e+00 0.000000000e+00 0.000000000e+00
2.560000e+09 -5.928022157e-01 3.778879037e-02 -1.583750384e-01 8.063035141e-01 0.000000000e+00 0.000000000e+00 0.000000000e+00 0.000000000e+00
2.570000e+09 -5.929550179e-01 3.774729156e-02 -1.616433626e-01 8.054084545e-01 0.000000000e+00 0.000000000e+00 0.000000000e+00 0.000000000e+00
2.580000e+09 -5.931069781e-01 3.770536148e-02 -1.648936793e-01 8.045041683e-01 0.000000000e+00 0.000000000e+00 0.000000000e+00 0.000000000e+00
2.590000e+09 -5.932580998e-01 3.766300790e-02 -1.681260627e-01 8.035908216e-01 0.000000000e+00 0.000000000e+00 0.000000000e+00 0.000000000e+00
2.600000e+09 -5.934083865e-01 3.762023848e-02 -1.713405878e-01 8.026685785e-01 0.000000000e+00 0.000000000e+00 0.000000000e+00 0.000000000e+00
2.610000e+09 -5.935578417e-01 3.757706080e-02 -1.745373300e-01 8.017376011e-01 0.000000000e+00 0.000000000e+00 0.000000000e+00 0.000000000e+00
2.620000e+09 -5.937064690e-01 3.753348234e-02 -1.777163654e-01 8.007980491e-01 0.000000000e+00 0.000000000e+00 0.000000000e+00 0.000000000e+00
2.630000e+09 -5.938542719e-01 3.748951048e-02 -1.808777704e-01 7.998500804e-01 0.000000000e+00 0.000000000e+00 0.000000000e+00 0.000000000e+00
2.640000e+09 -5.940012542e-01 3.744515249e-02 -1.840216219e-01 7.988938508e-01 0.000000000e+00 0.000000000e+00 0.000000000e+00 0.000000000e+00
2.650000e+09 -5.941474193e-01 3.740041557e-02 -1.871479971e-01 7.979295142e-01 0.000000000e+00 0.000000000e+00 0.000000000e+00 0.000000000e+00
2.660000e+09 -5.942927709e-01 3.735530681e-02 -1.902569739e-01 7.969572222e-01 0.000000000e+00 0.000000000e+00 0.000000000e+00 0.000000000e+00
2.670000e+09 -5.944373127e-01 3.730983322e-02 -1.933486304e-01 7.959771247e-01 0.000000000e+00 0.000000000e+00 0.000000000e+00 0.000000000e+00
2.680000e+09 -5.945810483e-01 3.726400172e-02 -1.964230449e-01 7.949893695e-01 0.000000000e+00 0.000000000e+00 0.000000000e+00 0.000000000e+00
2.690000e+09 -5.947239815e-01 3.721781911e-02 -1.994802964e-01 7.939941025e-01 0.000000000e+00 0.000000000e+00 0.000000000e+00 0.000000000e+00
2.700000e+09 -5.948661159e-01 3.717129213e-02 -2.025204638e-01 7.929914677e-01 0.000000000e+00 0.000000000e+00 0.000000000e+00 0.000000000e+00
2.710000e+09 -5.950074552e-01 3.712442743e-02 -2.055436267e-01 7.919816072e-01 0.000000000e+00 0.000000000e+00 0.000000000e+00 0.000000000e+00
2.720000e+09 -5.951480032e-01 3.707723155e-02 -2.085498647e-01 7.909646611e-01 0.000000000e+00 0.000000000e+00 0.000000000e+00 0.000000000e+00
2.730000e+09 -5.952877636e-01 3.702971097e-02 -2.115392577e-01 7.899407678e-01 0.000000000e+00 0.000000000e+00 0.000000000e+00 0.000000000e+00
2.740000e+09 -5.954267401e-01 3.698187207e-02 -2.145118859e-01 7.889100638e-01 0.000000000e+00 0.000000000e+00 0.000000000e+00 0.000000000e+00
2.750000e+09 -5.955649366e-01 3.693372114e-02 -2.174678296e-01 7.878726838e-01 0.000000000e+00 0.000000000e+00 0.000000000e+00 0.000000000e+00
2.760000e+09 -5.957023567e-01 3.688526439e-02 -2.204071695e-01 7.868287605e-01 0.000000000e+00 0.000000000e+00 0.000000000e+00 0.000000000e+00
2.770000e+09 -5.958390043e-01 3.683650795e-02 -2.233299864e-01 7.857784252e-01 0.000000000e+00 0.000000000e+00 0.000000000e+00 0.000000000e+00
2.780000e+09 -5.959748832e-01 3.678745786e-02 -2.262363611e-01 7.847218070e-01 0.000000000e+00 0.000000000e+00 0.000000000e+00 0.000000000e+00
2.790000e+09 -5.961099971e-01 3.673812010e-02 -2.291263746e-01 7.836590335e-01 0.000000000e+00 0.000000000e+00 0.000000000e+00 0.000000000e+00
2.800000e+09 -5.962443499e-01 3.668850053e-02 -2.320001083e-01 7.825902306e-01 0.000000000e+00 0.000000000e+00 0.000000000e+00 0.000000000e+00
2.810000e+09 -5.963779452e-01 3.663860497e-02 -2.348576434e-01 7.815155224e-01 0.000000000e+00 0.000000000e+00 0.000000000e+00 0.000000000e+00
2.820000e+09 -5.965107871e-01 3.658843913e-02 -2.376990612e-01 7.804350313e-01 0.000000000e+00 0.000000000e+00 0.000000000e+00 0.000000000e+00
2.830000e+09 -5.966428792e-01 3.653800866e-02 -2.405244434e-01 7.793488781e-01 0.000000000e+00 0.000000000e+00 0.000000000e+00 0.000000000e+00
2.840000e+09 -5.967742253e-01 3.648731913e-02 -2.433338714e-01 7.782571818e-01 0.000000000e+00 0.000000000e+00 0.000000000e+00 0.000000000e+00
2.850000e+09 -5.969048294e-01 3.643637603e-02 -2.461274268e-01 7.771600600e-01 0.000000000e+00 0.000000000e+00 0.000000000e+00 0.000000000e+00
2.860000e+09 -5.970346952e-01 3.638518478e-02 -2.489051912e-01 7.760576284e-01 0.000000000e+00 0.000000000e+00 0.000000000e+00 0.000000000e+00
2.870000e+09 -5.971638265e-01 3.633375071e-02 -2.516672464e-01 7.749500013e-01 0.000000000e+00 0.000000000e+00 0.000000000e+00 0.000000000e+00
2.880000e+09 -5.972922271e-01 3.628207909e-02 -2.544136740e-01 7.738372914e-01 0.000000000e+00 0.000000000e+00 0.000000000e+00 0.000000000e+00
2.890000e+09 -5.974199009e-01 3.623017511e-02 -2.571445556e-01 7.727196098e-01 0.000000000e+00 0.000000000e+00 0.000000000e+00 0.000000000e+00
2.900000e+09 -5.975468517e-01 3.617804391e-02 -2.598599730e-01 7.715970660e-01 0.000000000e+00 0.000000000e+00 0.000000000e+00 0.000000000e+00
2.910000e+09 -5.976730833e-01 3.612569052e-02 -2.625600076e-01 7.704697681e-01 0.000000000e+00 0.000000000e+00 0.000000000e+00 0.000000000e+00
2.920000e+09 -5.977985995e-01 3.607311992e-02 -2.652447412e-01 7.693378225e-01 0.000000000e+00 0.000000000e+00 0.000000000e+00 0.000000000e+00
2.930000e+09 -5.979234042e-01 3.602033702e-02 -2.679142552e-01 7.682013343e-01 0.000000000e+00 0.000000000e+00 0.000000000e+00 0.000000000e+00
2.940000e+09 -5.980475011e-01 3.596734668e-02 -2.705686311e-01 7.670604070e-01 0.000000000e+00 0.000000000e+00 0.000000000e+00 0.000000000e+00
2.950000e+09 -5.981708940e-01 3.591415364e-02 -2.732079502e-01 7.659151427e-01 0.000000000e+00 0.000000000e+00 0.000000000e+00 0.000000000e+00
2.960000e+09 -5.982935868e-01 3.586076263e-02 -2.758322940e-01 7.647656421e-01 0.000000000e+00 0.000000000e+00 0.000000000e+00 0.000000000e+00
2.970000e+09 -5.984155833e-01 3.580717827e-02 -2.784417435e-01 7.636120043e-01 0.000000000e+00 0.000000000e+00 0.000000000e+00 0.000000000e+00
2.980000e+09 -5.985368872e-01 3.575340514e-02 -2.810363799e-01 7.624543273e-01 0.000000000e+00 0.000000000e+00 0.000000000e+00 0.000000000e+00
2.990000e+09 -5.986575023e-01 3.569944775e-02 -2.836162842e-01 7.612927073e-01 0.000000000e+00 0.000000000e+00 0.000000000e+00 0.000000000e+00
3.000000e+09 -5.987774324e-01 3.564531054e-02 -2.861815372e-01 7.601272394e-01 0.000000000e+00 0.000000000e+00 0.000000000e+00 0.000000000e+00
