! rfsim (KiCad + openEMS)
# HZ S RI R 50
5.000000e+08 5.234562987e-02 5.060566294e-01 -9.853466314e+00 -4.890753825e+00 0.000000000e+00 0.000000000e+00 0.000000000e+00 0.000000000e+00
5.100000e+08 4.261334155e-02 5.086664700e-01 -9.759403969e+00 -4.915972499e+00 0.000000000e+00 0.000000000e+00 0.000000000e+00 0.000000000e+00
5.200000e+08 3.297468885e-02 5.110554313e-01 -9.666246608e+00 -4.939056382e+00 0.000000000e+00 0.000000000e+00 0.000000000e+00 0.000000000e+00
5.300000e+08 2.343369922e-02 5.132309944e-01 -9.574033155e+00 -4.960077778e+00 0.000000000e+00 0.000000000e+00 0.000000000e+00 0.000000000e+00
5.400000e+08 1.399400912e-02 5.152005646e-01 -9.482798758e+00 -4.979108259e+00 0.000000000e+00 0.000000000e+00 0.000000000e+00 0.000000000e+00
5.500000e+08 4.658881977e-03 5.169714569e-01 -9.392574956e+00 -4.996218524e+00 0.000000000e+00 0.000000000e+00 0.000000000e+00 0.000000000e+00
5.600000e+08 -4.568773928e-03 5.185508828e-01 -9.303389859e+00 -5.011478273e+00 0.000000000e+00 0.000000000e+00 0.000000000e+00 0.000000000e+00
5.700000e+08 -1.368638768e-02 5.199459389e-01 -9.215268315e+00 -5.024956093e+00 0.000000000e+00 0.000000000e+00 0.000000000e+00 0.000000000e+00
5.800000e+08 -2.269170817e-02 5.211635967e-01 -9.128232079e+00 -5.036719364e+00 0.000000000e+00 0.000000000e+00 0.000000000e+00 0.000000000e+00
5.900000e+08 -3.158278678e-02 5.222106939e-01 -9.042299986e+00 -5.046834172e+00 0.000000000e+00 0.000000000e+00 0.000000000e+00 0.000000000e+00
6.000000e+08 -4.035796049e-02 5.230939268e-01 -8.957488109e+00 -5.055365237e+00 0.000000000e+00 0.000000000e+00 0.000000000e+00 0.000000000e+00
6.100000e+08 -4.901583527e-02 5.238198441e-01 -8.873809921e+00 -5.062375852e+00 0.000000000e+00 0.000000000e+00 0.000000000e+00 0.000000000e+00
6.200000e+08 -5.755527003e-02 5.243948415e-01 -8.791276449e+00 -5.067927831e+00 0.000000000e+00 0.000000000e+00 0.000000000e+00 0.000000000e+00
6.300000e+08 -6.597536101e-02 5.248251576e-01 -8.709896431e+00 -5.072081469e+00 0.000000000e+00 0.000000000e+00 0.000000000e+00 0.000000000e+00
6.400000e+08 -7.427542661e-02 5.251168706e-01 -8.629676452e+00 -5.074895512e+00 0.000000000e+00 0.000000000e+00 0.000000000e+00 0.000000000e+00
6.500000e+08 -8.245499286e-02 5.252758954e-01 -8.550621094e+00 -5.076427129e+00 0.000000000e+00 0.000000000e+00 0.000000000e+00 0.000000000e+00
6.600000e+08 -9.051377939e-02 5.253079826e-01 -8.472733066e+00 -5.076731897e+00 0.000000000e+00 0.000000000e+00 0.000000000e+00 0.000000000e+00
6.700000e+08 -9.845168596e-02 5.252187170e-01 -8.396013338e+00 -5.075863794e+00 0.000000000e+00 0.000000000e+00 0.000000000e+00 0.000000000e+00
6.800000e+08 -1.062687795e-01 5.250135173e-01 -8.320461262e+00 -5.073875192e+00 0.000000000e+00 0.000000000e+00 0.000000000e+00 0.000000000e+00
6.900000e+08 -1.139652820e-01 5.246976365e-01 -8.246074694e+00 -5.070816860e+00 0.000000000e+00 0.000000000e+00 0.000000000e+00 0.000000000e+00
7.000000e+08 -1.215415583e-01 5.242761626e-01 -8.172850106e+00 -5.066737975e+00 0.000000000e+00 0.000000000e+00 0.000000000e+00 0.000000000e+00
7.100000e+08 -1.289981055e-01 5.237540196e-01 -8.100782695e+00 -5.061686126e+00 0.000000000e+00 0.000000000e+00 0.000000000e+00 0.000000000e+00
7.200000e+08 -1.363355417e-01 5.231359695e-01 -8.029866486e+00 -5.055707337e+00 0.000000000e+00 0.000000000e+00 0.000000000e+00 0.000000000e+00
7.300000e+08 -1.435545963e-01 5.224266137e-01 -7.960094428e+00 -5.048846082e+00 0.000000000e+00 0.000000000e+00 0.000000000e+00 0.000000000e+00
7.400000e+08 -1.506561006e-01 5.216303959e-01 -7.891458491e+00 -5.041145308e+00 0.000000000e+00 0.000000000e+00 0.000000000e+00 0.000000000e+00
7.500000e+08 -1.576409781e-01 5.207516043e-01 -7.823949746e+00 -5.032646461e+00 0.000000000e+00 0.000000000e+00 0.000000000e+00 0.000000000e+00
7.600000e+08 -1.645102365e-01 5.197943745e-01 -7.757558454e+00 -5.023389511e+00 0.000000000e+00 0.000000000e+00 0.000000000e+00 0.000000000e+00
7.700000e+08 -1.712649597e-01 5.187626926e-01 -7.692274139e+00 -5.013412983e+00 0.000000000e+00 0.000000000e+00 0.000000000e+00 0.000000000e+00
7.800000e+08 -1.779062999e-01 5.176603980e-01 -7.628085667e+00 -5.002753987e+00 0.000000000e+00 0.000000000e+00 0.000000000e+00 0.000000000e+00
7.900000e+08 -1.844354706e-01 5.164911873e-01 -7.564981307e+00 -4.991448249e+00 0.000000000e+00 0.000000000e+00 0.000000000e+00 0.000000000e+00
8.000000e+08 -1.908537401e-01 5.152586174e-01 -7.502948802e+00 -4.979530145e+00 0.000000000e+00 0.000000000e+00 0.000000000e+00 0.000000000e+00
8.100000e+08 -1.971624251e-01 5.139661089e-01 -7.441975426e+00 -4.967032738e+00 0.000000000e+00 0.000000000e+00 0.000000000e+00 0.000000000e+00
8.200000e+08 -2.033628850e-01 5.126169501e-01 -7.382048041e+00 -4.953987806e+00 0.000000000e+00 0.000000000e+00 0.000000000e+00 0.000000000e+00
8.300000e+08 -2.094565160e-01 5.112143002e-01 -7.323153152e+00 -4.940425885e+00 0.000000000e+00 0.000000000e+00 0.000000000e+00 0.000000000e+00
8.400000e+08 -2.154447467e-01 5.097611932e-01 -7.265276953e+00 -4.926376297e+00 0.000000000e+00 0.000000000e+00 0.000000000e+00 0.000000000e+00
8.500000e+08 -2.213290327e-01 5.082605415e-01 -7.208405373e+00 -4.911867192e+00 0.000000000e+00 0.000000000e+00 0.000000000e+00 0.000000000e+00
8.600000e+08 -2.271108527e-01 5.067151397e-01 -7.152524123e+00 -4.896925578e+00 0.000000000e+00 0.000000000e+00 0.000000000e+00 0.000000000e+00
8.700000e+08 -2.327917040e-01 5.051276682e-01 -7.097618730e+00 -4.881577361e+00 0.000000000e+00 0.000000000e+00 0.000000000e+00 0.000000000e+00
8.800000e+08 -2.383730990e-01 5.035006966e-01 -7.043674578e+00 -4.865847378e+00 0.000000000e+00 0.000000000e+00 0.000000000e+00 0.000000000e+00
8.900000e+08 -2.438565615e-01 5.018366878e-01 -6.990676939e+00 -4.849759431e+00 0.000000000e+00 0.000000000e+00 0.000000000e+00 0.000000000e+00
9.000000e+08 -2.492436235e-01 5.001380010e-01 -6.938611006e+00 -4.833336322e+00 0.000000000e+00 0.000000000e+00 0.000000000e+00 0.000000000e+00
9.100000e+08 -2.545358223e-01 4.984068958e-01 -6.887461921e+00 -4.816599890e+00 0.000000000e+00 0.000000000e+00 0.000000000e+00 0.000000000e+00
9.200000e+08 -2.597346976e-01 4.966455349e-01 -6.837214803e+00 -4.799571039e+00 0.000000000e+00 0.000000000e+00 0.000000000e+00 0.000000000e+00
9.300000e+08 -2.648417890e-01 4.948559884e-01 -6.787854772e+00 -4.782269774e+00 0.000000000e+00 0.000000000e+00 0.000000000e+00 0.000000000e+00
9.400000e+08 -2.698586338e-01 4.930402363e-01 -6.739366970e+00 -4.764715232e+00 0.000000000e+00 0.000000000e+00 0.000000000e+00 0.000000000e+00
9.500000e+08 -2.747867645e-01 4.912001720e-01 -6.691736585e+00 -4.746925715e+00 0.000000000e+00 0.000000000e+00 0.000000000e+00 0.000000000e+00
9.600000e+08 -2.796277075e-01 4.893376059e-01 -6.644948866e+00 -4.728918718e+00 0.000000000e+00 0.000000000e+00 0.000000000e+00 0.000000000e+00
9.700000e+08 -2.843829806e-01 4.874542679e-01 -6.598989141e+00 -4.710710961e+00 0.000000000e+00 0.000000000e+00 0.000000000e+00 0.000000000e+00
9.800000e+08 -2.890540919e-01 4.855518105e-01 -6.553842835e+00 -4.692318416e+00 0.000000000e+00 0.000000000e+00 0.000000000e+00 0.000000000e+00
9.900000e+08 -2.936425383e-01 4.836318122e-01 -6.509495482e+00 -4.673756338e+00 0.000000000e+00 0.000000000e+00 0.000000000e+00 0.000000000e+00
1.000000e+09 -2.981498038e-01 4.816957798e-01 -6.465932739e+00 -4.655039292e+00 0.000000000e+00 0.000000000e+00 0.000000000e+00 0.000000000e+00
1.010000e+09 -3.025773587e-01 4.797451514e-01 -6.423140393e+00 -4.636181175e+00 0.000000000e+00 0.000000000e+00 0.000000000e+00 0.000000000e+00
1.020000e+09 -3.069266586e-01 4.777812992e-01 -6.381104379e+00 -4.617195251e+00 0.000000000e+00 0.000000000e+00 0.000000000e+00 0.000000000e+00
1.030000e+09 -3.111991429e-01 4.758055317e-01 -6.339810783e+00 -4.598094166e+00 0.000000000e+00 0.000000000e+00 0.000000000e+00 0.000000000e+00
1.040000e+09 -3.153962347e-01 4.738190968e-01 -6.299245851e+00 -4.578889980e+00 0.000000000e+00 0.000000000e+00 0.000000000e+00 0.000000000e+00
1.050000e+09 -3.195193396e-01 4.718231836e-01 -6.259396000e+00 -4.559594187e+00 0.000000000e+00 0.000000000e+00 0.000000000e+00 0.000000000e+00
1.060000e+09 -3.235698449e-01 4.698189253e-01 -6.220247818e+00 -4.540217739e+00 0.000000000e+00 0.000000000e+00 0.000000000e+00 0.000000000e+00
1.070000e+09 -3.275491197e-01 4.678074011e-01 -6.181788077e+00 -4.520771067e+00 0.000000000e+00 0.000000000e+00 0.000000000e+00 0.000000000e+00
1.080000e+09 -3.314585137e-01 4.657896388e-01 -6.144003729e+00 -4.501264103e+00 0.000000000e+00 0.000000000e+00 0.000000000e+00 0.000000000e+00
1.090000e+09 -3.352993572e-01 4.637666162e-01 -6.106881918e+00 -4.481706300e+00 0.000000000e+00 0.000000000e+00 0.000000000e+00 0.000000000e+00
1.100000e+09 -3.390729606e-01 4.617392642e-01 -6.070409979e+00 -4.462106651e+00 0.000000000e+00 0.000000000e+00 0.000000000e+00 0.000000000e+00
1.110000e+09 -3.427806144e-01 4.597084676e-01 -6.034575439e+00 -4.442473711e+00 0.000000000e+00 0.000000000e+00 0.000000000e+00 0.000000000e+00
1.120000e+09 -3.464235884e-01 4.576750679e-01 -5.999366025e+00 -4.422815614e+00 0.000000000e+00 0.000000000e+00 0.000000000e+00 0.000000000e+00
1.130000e+09 -3.500031322e-01 4.556398649e-01 -5.964769661e+00 -4.403140086e+00 0.000000000e+00 0.000000000e+00 0.000000000e+00 0.000000000e+00
1.140000e+09 -3.535204745e-01 4.536036182e-01 -5.930774471e+00 -4.383454471e+00 0.000000000e+00 0.000000000e+00 0.000000000e+00 0.000000000e+00
1.150000e+09 -3.569768235e-01 4.515670491e-01 -5.897368778e+00 -4.363765740e+00 0.000000000e+00 0.000000000e+00 0.000000000e+00 0.000000000e+00
1.160000e+09 -3.603733664e-01 4.495308421e-01 -5.864541106e+00 -4.344080509e+00 0.000000000e+00 0.000000000e+00 0.000000000e+00 0.000000000e+00
1.170000e+09 -3.637112700e-01 4.474956468e-01 -5.832280181e+00 -4.324405057e+00 0.000000000e+00 0.000000000e+00 0.000000000e+00 0.000000000e+00
1.180000e+09 -3.669916800e-01 4.454620792e-01 -5.800574927e+00 -4.304745334e+00 0.000000000e+00 0.000000000e+00 0.000000000e+00 0.000000000e+00
1.190000e+09 -3.702157217e-01 4.434307227e-01 -5.769414470e+00 -4.285106984e+00 0.000000000e+00 0.000000000e+00 0.000000000e+00 0.000000000e+00
1.200000e+09 -3.733844997e-01 4.414021305e-01 -5.738788132e+00 -4.265495349e+00 0.000000000e+00 0.000000000e+00 0.000000000e+00 0.000000000e+00
1.210000e+09 -3.764990983e-01 4.393768259e-01 -5.708685436e+00 -4.245915489e+00 0.000000000e+00 0.000000000e+00 0.000000000e+00 0.000000000e+00
1.220000e+09 -3.795605814e-01 4.373553043e-01 -5.679096097e+00 -4.226372192e+00 0.000000000e+00 0.000000000e+00 0.000000000e+00 0.000000000e+00
1.230000e+09 -3.825699929e-01 4.353380340e-01 -5.650010028e+00 -4.206869985e+00 0.000000000e+00 0.000000000e+00 0.000000000e+00 0.000000000e+00
1.240000e+09 -3.855283564e-01 4.333254578e-01 -5.621417333e+00 -4.187413145e+00 0.000000000e+00 0.000000000e+00 0.000000000e+00 0.000000000e+00
1.250000e+09 -3.884366762e-01 4.313179937e-01 -5.593308308e+00 -4.168005713e+00 0.000000000e+00 0.000000000e+00 0.000000000e+00 0.000000000e+00
1.260000e+09 -3.912959368e-01 4.293160362e-01 -5.565673437e+00 -4.148651502e+00 0.000000000e+00 0.000000000e+00 0.000000000e+00 0.000000000e+00
1.270000e+09 -3.941071033e-01 4.273199573e-01 -5.538503392e+00 -4.129354108e+00 0.000000000e+00 0.000000000e+00 0.000000000e+00 0.000000000e+00
1.280000e+09 -3.968711221e-01 4.253301077e-01 -5.511789027e+00 -4.110116919e+00 0.000000000e+00 0.000000000e+00 0.000000000e+00 0.000000000e+00
1.290000e+09 -3.995889203e-01 4.233468173e-01 -5.485521380e+00 -4.090943126e+00 0.000000000e+00 0.000000000e+00 0.000000000e+00 0.000000000e+00
1.300000e+09 -4.022614068e-01 4.213703967e-01 -5.459691668e+00 -4.071835729e+00 0.000000000e+00 0.000000000e+00 0.000000000e+00 0.000000000e+00
1.310000e+09 -4.048894720e-01 4.194011375e-01 -5.434291285e+00 -4.052797546e+00 0.000000000e+00 0.000000000e+00 0.000000000e+00 0.000000000e+00
1.320000e+09 -4.074739883e-01 4.174393137e-01 -5.409311799e+00 -4.033831227e+00 0.000000000e+00 0.000000000e+00 0.000000000e+00 0.000000000e+00
1.330000e+09 -4.100158104e-01 4.154851821e-01 -5.384744950e+00 -4.014939252e+00 0.000000000e+00 0.000000000e+00 0.000000000e+00 0.000000000e+00
1.340000e+09 -4.125157754e-01 4.135389831e-01 -5.360582646e+00 -3.996123946e+00 0.000000000e+00 0.000000000e+00 0.000000000e+00 0.000000000e+00
1.350000e+09 -4.149747033e-01 4.116009418e-01 -5.336816963e+00 -3.977387483e+00 0.000000000e+00 0.000000000e+00 0.000000000e+00 0.000000000e+00
1.360000e+09 -4.173933972e-01 4.096712683e-01 -5.313440138e+00 -3.958731895e+00 0.000000000e+00 0.000000000e+00 0.000000000e+00 0.000000000e+00
1.370000e+09 -4.197726435e-01 4.077501586e-01 -5.290444572e+00 -3.940159076e+00 0.000000000e+00 0.000000000e+00 0.000000000e+00 0.000000000e+00
1.380000e+09 -4.221132124e-01 4.058377952e-01 -5.267822820e+00 -3.921670790e+00 0.000000000e+00 0.000000000e+00 0.000000000e+00 0.000000000e+00
1.390000e+09 -4.244158578e-01 4.039343477e-01 -5.245567595e+00 -3.903268676e+00 0.000000000e+00 0.000000000e+00 0.000000000e+00 0.000000000e+00
1.400000e+09 -4.266813182e-01 4.020399734e-01 -5.223671760e+00 -3.884954254e+00 0.000000000e+00 0.000000000e+00 0.000000000e+00 0.000000000e+00
1.410000e+09 -4.289103165e-01 4.001548180e-01 -5.202128330e+00 -3.866728932e+00 0.000000000e+00 0.000000000e+00 0.000000000e+00 0.000000000e+00
1.420000e+09 -4.311035602e-01 3.982790159e-01 -5.180930465e+00 -3.848594009e+00 0.000000000e+00 0.000000000e+00 0.000000000e+00 0.000000000e+00
1.430000e+09 -4.332617422e-01 3.964126909e-01 -5.160071467e+00 -3.830550683e+00 0.000000000e+00 0.000000000e+00 0.000000000e+00 0.000000000e+00
1.440000e+09 -4.353855408e-01 3.945559568e-01 -5.139544783e+00 -3.812600052e+00 0.000000000e+00 0.000000000e+00 0.000000000e+00 0.000000000e+00
1.450000e+09 -4.374756199e-01 3.927089175e-01 -5.119343995e+00 -3.794743121e+00 0.000000000e+00 0.000000000e+00 0.000000000e+00 0.000000000e+00
1.460000e+09 -4.395326294e-01 3.908716679e-01 -5.099462823e+00 -3.776980808e+00 0.000000000e+00 0.000000000e+00 0.000000000e+00 0.000000000e+00
1.470000e+09 -4.415572053e-01 3.890442941e-01 -5.079895117e+00 -3.759313943e+00 0.000000000e+00 0.000000000e+00 0.000000000e+00 0.000000000e+00
1.480000e+09 -4.435499705e-01 3.872268737e-01 -5.060634860e+00 -3.741743278e+00 0.000000000e+00 0.000000000e+00 0.000000000e+00 0.000000000e+00
1.490000e+09 -4.455115343e-01 3.854194766e-01 -5.041676162e+00 -3.724269489e+00 0.000000000e+00 0.000000000e+00 0.000000000e+00 0.000000000e+00
1.500000e+09 -4.474424933e-01 3.836221650e-01 -5.023013256e+00 -3.706893175e+00 0.000000000e+00 0.000000000e+00 0.000000000e+00 0.000000000e+00
1.510000e+09 -4.493434315e-01 3.818349940e-01 -5.004640499e+00 -3.689614869e+00 0.000000000e+00 0.000000000e+00 0.000000000e+00 0.000000000e+00
1.520000e+09 -4.512149203e-01 3.800580117e-01 -4.986552367e+00 -3.672435037e+00 0.000000000e+00 0.000000000e+00 0.000000000e+00 0.000000000e+00
1.530000e+09 -4.530575192e-01 3.782912599e-01 -4.968743454e+00 -3.655354083e+00 0.000000000e+00 0.000000000e+00 0.000000000e+00 0.000000000e+00
1.540000e+09 -4.548717755e-01 3.765347740e-01 -4.951208469e+00 -3.638372349e+00 0.000000000e+00 0.000000000e+00 0.000000000e+00 0.000000000e+00
1.550000e+09 -4.566582252e-01 3.747885839e-01 -4.933942233e+00 -3.621490122e+00 0.000000000e+00 0.000000000e+00 0.000000000e+00 0.000000000e+00
1.560000e+09 -4.584173928e-01 3.730527134e-01 -4.916939675e+00 -3.604707634e+00 0.000000000e+00 0.000000000e+00 0.000000000e+00 0.000000000e+00
1.570000e+09 -4.601497917e-01 3.713271814e-01 -4.900195835e+00 -3.588025068e+00 0.000000000e+00 0.000000000e+00 0.000000000e+00 0.000000000e+00
1.580000e+09 -4.618559242e-01 3.696120017e-01 -4.883705857e+00 -3.571442556e+00 0.000000000e+00 0.000000000e+00 0.000000000e+00 0.000000000e+00
1.590000e+09 -4.635362823e-01 3.679071831e-01 -4.867464986e+00 -3.554960185e+00 0.000000000e+00 0.000000000e+00 0.000000000e+00 0.000000000e+00
1.600000e+09 -4.651913472e-01 3.662127302e-01 -4.851468570e+00 -3.538577997e+00 0.000000000e+00 0.000000000e+00 0.000000000e+00 0.000000000e+00
1.610000e+09 -4.668215903e-01 3.645286430e-01 -4.835712055e+00 -3.522295994e+00 0.000000000e+00 0.000000000e+00 0.000000000e+00 0.000000000e+00
1.620000e+09 -4.684274727e-01 3.628549177e-01 -4.820190984e+00 -3.506114138e+00 0.000000000e+00 0.000000000e+00 0.000000000e+00 0.000000000e+00
1.630000e+09 -4.700094459e-01 3.611915464e-01 -4.804900993e+00 -3.490032353e+00 0.000000000e+00 0.000000000e+00 0.000000000e+00 0.000000000e+00
1.640000e+09 -4.715679518e-01 3.595385177e-01 -4.789837810e+00 -3.474050529e+00 0.000000000e+00 0.000000000e+00 0.000000000e+00 0.000000000e+00
1.650000e+09 -4.731034231e-01 3.578958167e-01 -4.774997255e+00 -3.458168522e+00 0.000000000e+00 0.000000000e+00 0.000000000e+00 0.000000000e+00
1.660000e+09 -4.746162831e-01 3.562634253e-01 -4.760375235e+00 -3.442386157e+00 0.000000000e+00 0.000000000e+00 0.000000000e+00 0.000000000e+00
1.670000e+09 -4.761069465e-01 3.546413221e-01 -4.745967744e+00 -3.426703227e+00 0.000000000e+00 0.000000000e+00 0.000000000e+00 0.000000000e+00
1.680000e+09 -4.775758191e-01 3.530294829e-01 -4.731770857e+00 -3.411119498e+00 0.000000000e+00 0.000000000e+00 0.000000000e+00 0.000000000e+00
1.690000e+09 -4.790232981e-01 3.514278808e-01 -4.717780737e+00 -3.395634711e+00 0.000000000e+00 0.000000000e+00 0.000000000e+00 0.000000000e+00
1.700000e+09 -4.804497727e-01 3.498364863e-01 -4.703993623e+00 -3.380248579e+00 0.000000000e+00 0.000000000e+00 0.000000000e+00 0.000000000e+00
1.710000e+09 -4.818556236e-01 3.482552672e-01 -4.690405835e+00 -3.364960794e+00 0.000000000e+00 0.000000000e+00 0.000000000e+00 0.000000000e+00
1.720000e+09 -4.832412236e-01 3.466841894e-01 -4.677013768e+00 -3.349771022e+00 0.000000000e+00 0.000000000e+00 0.000000000e+00 0.000000000e+00
1.730000e+09 -4.846069379e-01 3.451232162e-01 -4.663813895e+00 -3.334678912e+00 0.000000000e+00 0.000000000e+00 0.000000000e+00 0.000000000e+00
1.740000e+09 -4.859531239e-01 3.435723090e-01 -4.650802760e+00 -3.319684090e+00 0.000000000e+00 0.000000000e+00 0.000000000e+00 0.000000000e+00
1.750000e+09 -4.872801316e-01 3.420314275e-01 -4.637976981e+00 -3.304786164e+00 0.000000000e+00 0.000000000e+00 0.000000000e+00 0.000000000e+00
1.760000e+09 -4.885883038e-01 3.405005292e-01 -4.625333245e+00 -3.289984727e+00 0.000000000e+00 0.000000000e+00 0.000000000e+00 0.000000000e+00
1.770000e+09 -4.898779760e-01 3.389795701e-01 -4.612868309e+00 -3.275279352e+00 0.000000000e+00 0.000000000e+00 0.000000000e+00 0.000000000e+00
1.780000e+09 -4.911494771e-01 3.374685047e-01 -4.600578994e+00 -3.260669599e+00 0.000000000e+00 0.000000000e+00 0.000000000e+00 0.000000000e+00
1.790000e+09 -4.924031288e-01 3.359672859e-01 -4.588462192e+00 -3.246155013e+00 0.000000000e+00 0.000000000e+00 0.000000000e+00 0.000000000e+00
1.800000e+09 -4.936392464e-01 3.344758651e-01 -4.576514853e+00 -3.231735125e+00 0.000000000e+00 0.000000000e+00 0.000000000e+00 0.000000000e+00
1.810000e+09 -4.948581387e-01 3.329941926e-01 -4.564733996e+00 -3.217409453e+00 0.000000000e+00 0.000000000e+00 0.000000000e+00 0.000000000e+00
1.820000e+09 -4.960601081e-01 3.315222173e-01 -4.553116696e+00 -3.203177505e+00 0.000000000e+00 0.000000000e+00 0.000000000e+00 0.000000000e+00
1.830000e+09 -4.972454507e-01 3.300598873e-01 -4.541660091e+00 -3.189038778e+00 0.000000000e+00 0.000000000e+00 0.000000000e+00 0.000000000e+00
1.840000e+09 -4.984144568e-01 3.286071492e-01 -4.530361377e+00 -3.174992756e+00 0.000000000e+00 0.000000000e+00 0.000000000e+00 0.000000000e+00
1.850000e+09 -4.995674105e-01 3.271639489e-01 -4.519217807e+00 -3.161038918e+00 0.000000000e+00 0.000000000e+00 0.000000000e+00 0.000000000e+00
1.860000e+09 -5.007045902e-01 3.257302315e-01 -4.508226690e+00 -3.147176731e+00 0.000000000e+00 0.000000000e+00 0.000000000e+00 0.000000000e+00
1.870000e+09 -5.018262687e-01 3.243059411e-01 -4.497385390e+00 -3.133405655e+00 0.000000000e+00 0.000000000e+00 0.000000000e+00 0.000000000e+00
1.880000e+09 -5.029327132e-01 3.228910210e-01 -4.486691324e+00 -3.119725143e+00 0.000000000e+00 0.000000000e+00 0.000000000e+00 0.000000000e+00
1.890000e+09 -5.040241855e-01 3.214854139e-01 -4.476141962e+00 -3.106134642e+00 0.000000000e+00 0.000000000e+00 0.000000000e+00 0.000000000e+00
1.900000e+09 -5.051009421e-01 3.200890620e-01 -4.465734825e+00 -3.092633591e+00 0.000000000e+00 0.000000000e+00 0.000000000e+00 0.000000000e+00
1.910000e+09 -5.061632344e-01 3.187019066e-01 -4.455467483e+00 -3.079221424e+00 0.000000000e+00 0.000000000e+00 0.000000000e+00 0.000000000e+00
1.920000e+09 -5.072113087e-01 3.173238887e-01 -4.445337557e+00 -3.065897571e+00 0.000000000e+00 0.000000000e+00 0.000000000e+00 0.000000000e+00
1.930000e+09 -5.082454063e-01 3.159549489e-01 -4.435342713e+00 -3.052661457e+00 0.000000000e+00 0.000000000e+00 0.000000000e+00 0.000000000e+00
1.940000e+09 -5.092657636e-01 3.145950271e-01 -4.425480666e+00 -3.039512503e+00 0.000000000e+00 0.000000000e+00 0.000000000e+00 0.000000000e+00
1.950000e+09 -5.102726125e-01 3.132440632e-01 -4.415749175e+00 -3.026450125e+00 0.000000000e+00 0.000000000e+00 0.000000000e+00 0.000000000e+00
1.960000e+09 -5.112661802e-01 3.119019964e-01 -4.406146046e+00 -3.013473738e+00 0.000000000e+00 0.000000000e+00 0.000000000e+00 0.000000000e+00
1.970000e+09 -5.122466892e-01 3.105687658e-01 -4.396669126e+00 -3.000582753e+00 0.000000000e+00 0.000000000e+00 0.000000000e+00 0.000000000e+00
1.980000e+09 -5.132143579e-01 3.092443103e-01 -4.387316306e+00 -2.987776578e+00 0.000000000e+00 0.000000000e+00 0.000000000e+00 0.000000000e+00
1.990000e+09 -5.141694000e-01 3.079285685e-01 -4.378085519e+00 -2.975054622e+00 0.000000000e+00 0.000000000e+00 0.000000000e+00 0.000000000e+00
2.000000e+09 -5.151120254e-01 3.066214789e-01 -4.368974738e+00 -2.962416288e+00 0.000000000e+00 0.000000000e+00 0.000000000e+00 0.000000000e+00
2.010000e+09 -5.160424396e-01 3.053229798e-01 -4.359981976e+00 -2.949860981e+00 0.000000000e+00 0.000000000e+00 0.000000000e+00 0.000000000e+00
2.020000e+09 -5.169608440e-01 3.040330095e-01 -4.351105286e+00 -2.937388104e+00 0.000000000e+00 0.000000000e+00 0.000000000e+00 0.000000000e+00
2.030000e+09 -5.178674363e-01 3.027515061e-01 -4.342342758e+00 -2.924997060e+00 0.000000000e+00 0.000000000e+00 0.000000000e+00 0.000000000e+00
2.040000e+09 -5.187624102e-01 3.014784076e-01 -4.333692520e+00 -2.912687250e+00 0.000000000e+00 0.000000000e+00 0.000000000e+00 0.000000000e+00
2.050000e+09 -5.196459555e-01 3.002136524e-01 -4.325152736e+00 -2.900458076e+00 0.000000000e+00 0.000000000e+00 0.000000000e+00 0.000000000e+00
2.060000e+09 -5.205182586e-01 2.989571784e-01 -4.316721606e+00 -2.888308940e+00 0.000000000e+00 0.000000000e+00 0.000000000e+00 0.000000000e+00
2.070000e+09 -5.213795021e-01 2.977089238e-01 -4.308397365e+00 -2.876239245e+00 0.000000000e+00 0.000000000e+00 0.000000000e+00 0.000000000e+00
2.080000e+09 -5.222298651e-01 2.964688270e-01 -4.300178283e+00 -2.864248394e+00 0.000000000e+00 0.000000000e+00 0.000000000e+00 0.000000000e+00
2.090000e+09 -5.230695232e-01 2.952368261e-01 -4.292062661e+00 -2.852335790e+00 0.000000000e+00 0.000000000e+00 0.000000000e+00 0.000000000e+00
2.100000e+09 -5.238986486e-01 2.940128597e-01 -4.284048834e+00 -2.840500839e+00 0.000000000e+00 0.000000000e+00 0.000000000e+00 0.000000000e+00
2.110000e+09 -5.247174104e-01 2.927968664e-01 -4.276135171e+00 -2.828742946e+00 0.000000000e+00 0.000000000e+00 0.000000000e+00 0.000000000e+00
2.120000e+09 -5.255259742e-01 2.915887847e-01 -4.268320068e+00 -2.817061521e+00 0.000000000e+00 0.000000000e+00 0.000000000e+00 0.000000000e+00
2.130000e+09 -5.263245025e-01 2.903885537e-01 -4.260601956e+00 -2.805455971e+00 0.000000000e+00 0.000000000e+00 0.000000000e+00 0.000000000e+00
2.140000e+09 -5.271131550e-01 2.891961124e-01 -4.252979292e+00 -2.793925708e+00 0.000000000e+00 0.000000000e+00 0.000000000e+00 0.000000000e+00
2.150000e+09 -5.278920879e-01 2.880114001e-01 -4.245450566e+00 -2.782470146e+00 0.000000000e+00 0.000000000e+00 0.000000000e+00 0.000000000e+00
2.160000e+09 -5.286614548e-01 2.868343562e-01 -4.238014293e+00 -2.771088699e+00 0.000000000e+00 0.000000000e+00 0.000000000e+00 0.000000000e+00
2.170000e+09 -5.294214062e-01 2.856649205e-01 -4.230669018e+00 -2.759780784e+00 0.000000000e+00 0.000000000e+00 0.000000000e+00 0.000000000e+00
2.180000e+09 -5.301720898e-01 2.845030330e-01 -4.223413314e+00 -2.748545823e+00 0.000000000e+00 0.000000000e+00 0.000000000e+00 0.000000000e+00
2.190000e+09 -5.309136507e-01 2.833486338e-01 -4.216245780e+00 -2.737383236e+00 0.000000000e+00 0.000000000e+00 0.000000000e+00 0.000000000e+00
2.200000e+09 -5.316462309e-01 2.822016636e-01 -4.209165041e+00 -2.726292449e+00 0.000000000e+00 0.000000000e+00 0.000000000e+00 0.000000000e+00
2.210000e+09 -5.323699702e-01 2.810620630e-01 -4.202169748e+00 -2.715272890e+00 0.000000000e+00 0.000000000e+00 0.000000000e+00 0.000000000e+00
2.220000e+09 -5.330850055e-01 2.799297731e-01 -4.195258577e+00 -2.704323988e+00 0.000000000e+00 0.000000000e+00 0.000000000e+00 0.000000000e+00
2.230000e+09 -5.337914711e-01 2.788047354e-01 -4.188430229e+00 -2.693445178e+00 0.000000000e+00 0.000000000e+00 0.000000000e+00 0.000000000e+00
2.240000e+09 -5.344894992e-01 2.776868915e-01 -4.181683429e+00 -2.682635896e+00 0.000000000e+00 0.000000000e+00 0.000000000e+00 0.000000000e+00
2.250000e+09 -5.351792191e-01 2.765761833e-01 -4.175016925e+00 -2.671895580e+00 0.000000000e+00 0.000000000e+00 0.000000000e+00 0.000000000e+00
2.260000e+09 -5.358607579e-01 2.754725533e-01 -4.168429488e+00 -2.661223675e+00 0.000000000e+00 0.000000000e+00 0.000000000e+00 0.000000000e+00
2.270000e+09 -5.365342405e-01 2.743759441e-01 -4.161919913e+00 -2.650619625e+00 0.000000000e+00 0.000000000e+00 0.000000000e+00 0.000000000e+00
2.280000e+09 -5.371997893e-01 2.732862987e-01 -4.155487016e+00 -2.640082880e+00 0.000000000e+00 0.000000000e+00 0.000000000e+00 0.000000000e+00
2.290000e+09 -5.378575245e-01 2.722035605e-01 -4.149129635e+00 -2.629612892e+00 0.000000000e+00 0.000000000e+00 0.000000000e+00 0.000000000e+00
2.300000e+09 -5.385075643e-01 2.711276732e-01 -4.142846628e+00 -2.619209118e+00 0.000000000e+00 0.000000000e+00 0.000000000e+00 0.000000000e+00
2.310000e+09 -5.391500245e-01 2.700585808e-01 -4.136636876e+00 -2.608871016e+00 0.000000000e+00 0.000000000e+00 0.000000000e+00 0.000000000e+00
2.320000e+09 -5.397850189e-01 2.689962278e-01 -4.130499279e+00 -2.598598051e+00 0.000000000e+00 0.000000000e+00 0.000000000e+00 0.000000000e+00
2.330000e+09 -5.404126593e-01 2.679405590e-01 -4.124432756e+00 -2.588389687e+00 0.000000000e+00 0.000000000e+00 0.000000000e+00 0.000000000e+00
2.340000e+09 -5.410330553e-01 2.668915196e-01 -4.118436247e+00 -2.578245397e+00 0.000000000e+00 0.000000000e+00 0.000000000e+00 0.000000000e+00
2.350000e+09 -5.416463148e-01 2.658490551e-01 -4.112508711e+00 -2.568164652e+00 0.000000000e+00 0.000000000e+00 0.000000000e+00 0.000000000e+00
2.360000e+09 -5.422525436e-01 2.648131115e-01 -4.106649125e+00 -2.558146932e+00 0.000000000e+00 0.000000000e+00 0.000000000e+00 0.000000000e+00
2.370000e+09 -5.428518455e-01 2.637836351e-01 -4.100856485e+00 -2.548191717e+00 0.000000000e+00 0.000000000e+00 0.000000000e+00 0.000000000e+00
2.380000e+09 -5.434443227e-01 2.627605726e-01 -4.095129803e+00 -2.538298491e+00 0.000000000e+00 0.000000000e+00 0.000000000e+00 0.000000000e+00
2.390000e+09 -5.440300755e-01 2.617438711e-01 -4.089468112e+00 -2.528466745e+00 0.000000000e+00 0.000000000e+00 0.000000000e+00 0.000000000e+00
2.400000e+09 -5.446092022e-01 2.607334781e-01 -4.083870459e+00 -2.518695970e+00 0.000000000e+00 0.000000000e+00 0.000000000e+00 0.000000000e+00
2.410000e+09 -5.451817997e-01 2.597293415e-01 -4.078335909e+00 -2.508985662e+00 0.000000000e+00 0.000000000e+00 0.000000000e+00 0.000000000e+00
2.420000e+09 -5.457479629e-01 2.587314096e-01 -4.072863543e+00 -2.499335322e+00 0.000000000e+00 0.000000000e+00 0.000000000e+00 0.000000000e+00
2.430000e+09 -5.463077853e-01 2.577396310e-01 -4.067452461e+00 -2.489744453e+00 0.000000000e+00 0.000000000e+00 0.000000000e+00 0.000000000e+00
2.440000e+09 -5.468613584e-01 2.567539548e-01 -4.062101774e+00 -2.480212564e+00 0.000000000e+00 0.000000000e+00 0.000000000e+00 0.000000000e+00
2.450000e+09 -5.474087726e-01 2.557743304e-01 -4.056810612e+00 -2.470739166e+00 0.000000000e+00 0.000000000e+00 0.000000000e+00 0.000000000e+00
2.460000e+09 -5.479501162e-01 2.548007079e-01 -4.051578120e+00 -2.461323774e+00 0.000000000e+00 0.000000000e+00 0.000000000e+00 0.000000000e+00
2.470000e+09 -5.484854764e-01 2.538330373e-01 -4.046403456e+00 -2.451965908e+00 0.000000000e+00 0.000000000e+00 0.000000000e+00 0.000000000e+00
2.480000e+09 -5.490149385e-01 2.528712695e-01 -4.041285795e+00 -2.442665091e+00 0.000000000e+00 0.000000000e+00 0.000000000e+00 0.000000000e+00
2.490000e+09 -5.495385867e-01 2.519153554e-01 -4.036224323e+00 -2.433420850e+00 0.000000000e+00 0.000000000e+00 0.000000000e+00 0.000000000e+00
2.500000e+09 -5.500565034e-01 2.509652465e-01 -4.031218244e+00 -2.424232717e+00 0.000000000e+00 0.000000000e+00 0.000000000e+00 0.000000000e+00
2.510000e+09 -5.505687698e-01 2.500208947e-01 -4.026266773e+00 -2.415100225e+00 0.000000000e+00 0.000000000e+00 0.000000000e+00 0.000000000e+00
2.520000e+09 -5.510754657e-01 2.490822522e-01 -4.021369139e+00 -2.406022913e+00 0.000000000e+00 0.000000000e+00 0.000000000e+00 0.000000000e+00
2.530000e+09 -5.515766694e-01 2.481492718e-01 -4.016524585e+00 -2.397000324e+00 0.000000000e+00 0.000000000e+00 0.000000000e+00 0.000000000e+00
2.540000e+09 -5.520724580e-01 2.472219064e-01 -4.011732366e+00 -2.388032005e+00 0.000000000e+00 0.000000000e+00 0.000000000e+00 0.000000000e+00
2.550000e+09 -5.525629072e-01 2.463001096e-01 -4.006991750e+00 -2.379117504e+00 0.000000000e+00 0.000000000e+00 0.000000000e+00 0.000000000e+00
2.560000e+09 -5.530480915e-01 2.453838351e-01 -4.002302017e+00 -2.370256377e+00 0.000000000e+00 0.000000000e+00 0.000000000e+00 0.000000000e+00
2.570000e+09 -5.535280840e-01 2.444730372e-01 -3.997662460e+00 -2.361448181e+00 0.000000000e+00 0.000000000e+00 0.000000000e+00 0.000000000e+00
2.580000e+09 -5.540029568e-01 2.435676706e-01 -3.993072385e+00 -2.352692478e+00 0.000000000e+00 0.000000000e+00 0.000000000e+00 0.000000000e+00
2.590000e+09 -5.544727806e-01 2.426676902e-01 -3.988531106e+00 -2.343988832e+00 0.000000000e+00 0.000000000e+00 0.000000000e+00 0.000000000e+00
2.600000e+09 -5.549376248e-01 2.417730516e-01 -3.984037951e+00 -2.335336814e+00 0.000000000e+00 0.000000000e+00 0.000000000e+00 0.000000000e+00
2.610000e+09 -5.553975580e-01 2.408837104e-01 -3.979592261e+00 -2.326735995e+00 0.000000000e+00 0.000000000e+00 0.000000000e+00 0.000000000e+00
2.620000e+09 -5.558526473e-01 2.399996230e-01 -3.975193384e+00 -2.318185953e+00 0.000000000e+00 0.000000000e+00 0.000000000e+00 0.000000000e+00
2.630000e+09 -5.563029589e-01 2.391207458e-01 -3.970840682e+00 -2.309686267e+00 0.000000000e+00 0.000000000e+00 0.000000000e+00 0.000000000e+00
2.640000e+09 -5.567485579e-01 2.382470358e-01 -3.966533525e+00 -2.301236523e+00 0.000000000e+00 0.000000000e+00 0.000000000e+00 0.000000000e+00
2.650000e+09 -5.571895081e-01 2.373784504e-01 -3.962271297e+00 -2.292836306e+00 0.000000000e+00 0.000000000e+00 0.000000000e+00 0.000000000e+00
2.660000e+09 -5.576258725e-01 2.365149473e-01 -3.958053388e+00 -2.284485209e+00 0.000000000e+00 0.000000000e+00 0.000000000e+00 0.000000000e+00
2.670000e+09 -5.580577130e-01 2.356564845e-01 -3.953879202e+00 -2.276182827e+00 0.000000000e+00 0.000000000e+00 0.000000000e+00 0.000000000e+00
2.680000e+09 -5.584850903e-01 2.348030206e-01 -3.949748149e+00 -2.267928759e+00 0.000000000e+00 0.000000000e+00 0.000000000e+00 0.000000000e+00
2.690000e+09 -5.589080644e-01 2.339545144e-01 -3.945659652e+00 -2.259722606e+00 0.000000000e+00 0.000000000e+00 0.000000000e+00 0.000000000e+00
2.700000e+09 -5.593266941e-01 2.331109250e-01 -3.941613141e+00 -2.251563974e+00 0.000000000e+00 0.000000000e+00 0.000000000e+00 0.000000000e+00
2.710000e+09 -5.597410374e-01 2.322722121e-01 -3.937608057e+00 -2.243452472e+00 0.000000000e+00 0.000000000e+00 0.000000000e+00 0.000000000e+00
2.720000e+09 -5.601511512e-01 2.314383357e-01 -3.933643849e+00 -2.235387715e+00 0.000000000e+00 0.000000000e+00 0.000000000e+00 0.000000000e+00
2.730000e+09 -5.605570916e-01 2.306092560e-01 -3.929719975e+00 -2.227369317e+00 0.000000000e+00 0.000000000e+00 0.000000000e+00 0.000000000e+00
2.740000e+09 -5.609589137e-01 2.297849336e-01 -3.925835903e+00 -2.219396898e+00 0.000000000e+00 0.000000000e+00 0.000000000e+00 0.000000000e+00
2.750000e+09 -5.613566717e-01 2.289653297e-01 -3.921991107e+00 -2.211470083e+00 0.000000000e+00 0.000000000e+00 0.000000000e+00 0.000000000e+00
2.760000e+09 -5.617504192e-01 2.281504056e-01 -3.918185072e+00 -2.203588498e+00 0.000000000e+00 0.000000000e+00 0.000000000e+00 0.000000000e+00
2.770000e+09 -5.621402085e-01 2.273401230e-01 -3.914417290e+00 -2.195751772e+00 0.000000000e+00 0.000000000e+00 0.000000000e+00 0.000000000e+00
2.780000e+09 -5.625260914e-01 2.265344440e-01 -3.910687261e+00 -2.187959540e+00 0.000000000e+00 0.000000000e+00 0.000000000e+00 0.000000000e+00
2.790000e+09 -5.629081189e-01 2.257333311e-01 -3.906994495e+00 -2.180211438e+00 0.000000000e+00 0.000000000e+00 0.000000000e+00 0.000000000e+00
2.800000e+09 -5.632863408e-01 2.249367471e-01 -3.903338506e+00 -2.172507107e+00 0.000000000e+00 0.000000000e+00 0.000000000e+00 0.000000000e+00
2.810000e+09 -5.636608065e-01 2.241446550e-01 -3.899718819e+00 -2.164846190e+00 0.000000000e+00 0.000000000e+00 0.000000000e+00 0.000000000e+00
2.820000e+09 -5.640315646e-01 2.233570183e-01 -3.896134965e+00 -2.157228335e+00 0.000000000e+00 0.000000000e+00 0.000000000e+00 0.000000000e+00
2.830000e+09 -5.643986626e-01 2.225738008e-01 -3.892586483e+00 -2.149653190e+00 0.000000000e+00 0.000000000e+00 0.000000000e+00 0.000000000e+00
2.840000e+09 -5.647621476e-01 2.217949667e-01 -3.889072919e+00 -2.142120410e+00 0.000000000e+00 0.000000000e+00 0.000000000e+00 0.000000000e+00
2.850000e+09 -5.651220659e-01 2.210204804e-01 -3.885593826e+00 -2.134629652e+00 0.000000000e+00 0.000000000e+00 0.000000000e+00 0.000000000e+00
2.860000e+09 -5.654784629e-01 2.202503067e-01 -3.882148764e+00 -2.127180574e+00 0.000000000e+00 0.000000000e+00 0.000000000e+00 0.000000000e+00
2.870000e+09 -5.658313835e-01 2.194844107e-01 -3.878737299e+00 -2.119772840e+00 0.000000000e+00 0.000000000e+00 0.000000000e+00 0.000000000e+00
2.880000e+09 -5.661808717e-01 2.187227580e-01 -3.875359007e+00 -2.112406116e+00 0.000000000e+00 0.000000000e+00 0.000000000e+00 0.000000000e+00
2.890000e+09 -5.665269711e-01 2.179653141e-01 -3.872013466e+00 -2.105080071e+00 0.000000000e+00 0.000000000e+00 0.000000000e+00 0.000000000e+00
2.900000e+09 -5.668697242e-01 2.172120454e-01 -3.868700264e+00 -2.097794377e+00 0.000000000e+00 0.000000000e+00 0.000000000e+00 0.000000000e+00
2.910000e+09 -5.672091734e-01 2.164629180e-01 -3.865418994e+00 -2.090548710e+00 0.000000000e+00 0.000000000e+00 0.000000000e+00 0.000000000e+00
2.920000e+09 -5.675453599e-01 2.157178989e-01 -3.862169255e+00 -2.083342747e+00 0.000000000e+00 0.000000000e+00 0.000000000e+00 0.000000000e+00
2.930000e+09 -5.678783246e-01 2.149769549e-01 -3.858950654e+00 -2.076176171e+00 0.000000000e+00 0.000000000e+00 0.000000000e+00 0.000000000e+00
2.940000e+09 -5.682081077e-01 2.142400535e-01 -3.855762800e+00 -2.069048665e+00 0.000000000e+00 0.000000000e+00 0.000000000e+00 0.000000000e+00
2.950000e+09 -5.685347488e-01 2.135071622e-01 -3.852605313e+00 -2.061959917e+00 0.000000000e+00 0.000000000e+00 0.000000000e+00 0.000000000e+00
2.960000e+09 -5.688582868e-01 2.127782490e-01 -3.849477814e+00 -2.054909617e+00 0.000000000e+00 0.000000000e+00 0.000000000e+00 0.000000000e+00
2.970000e+09 -5.691787601e-01 2.120532821e-01 -3.846379935e+00 -2.047897457e+00 0.000000000e+00 0.000000000e+00 0.000000000e+00 0.000000000e+00
2.980000e+09 -5.694962065e-01 2.113322302e-01 -3.843311308e+00 -2.040923135e+00 0.000000000e+00 0.000000000e+00 0.000000000e+00 0.000000000e+00
2.990000e+09 -5.698106633e-01 2.106150619e-01 -3.840271574e+00 -2.033986348e+00 0.000000000e+00 0.000000000e+00 0.000000000e+00 0.000000000e+00
3.000000e+09 -5.701221671e-01 2.099017465e-01 -3.837260380e+00 -2.027086798e+00 0.000000000e+00 0.000000000e+00 0.000000000e+00 0.000000000e+00
