! rfsim (KiCad + openEMS)
# HZ S RI R 50
5.000000e+08 -4.392993229e-03 -1.180887988e-02 9.893260448e-01 -1.018037776e-01 9.902476578e-01 -1.028391110e-01 -4.172782157e-03 -1.067505554e-02
5.100000e+08 -4.438248688e-03 -1.203024163e-02 9.891554337e-01 -1.037447667e-01 9.900422077e-01 -1.048697976e-01 -4.224326456e-03 -1.088578526e-02
5.200000e+08 -4.484208651e-03 -1.225255345e-02 9.889839515e-01 -1.056900332e-01 9.898332994e-01 -1.069004661e-01 -4.277039587e-03 -1.109676616e-02
5.300000e+08 -4.530958400e-03 -1.247579242e-02 9.888111309e-01 -1.076395398e-01 9.896207854e-01 -1.089311134e-01 -4.330942691e-03 -1.130797981e-02
5.400000e+08 -4.578578625e-03 -1.269993173e-02 9.886365290e-01 -1.095932309e-01 9.894045270e-01 -1.109617340e-01 -4.386055586e-03 -1.151940656e-02
5.500000e+08 -4.627145431e-03 -1.292494108e-02 9.884597271e-01 -1.115510344e-01 9.891843941e-01 -1.129923203e-01 -4.442396770e-03 -1.173102562e-02
5.600000e+08 -4.676730375e-03 -1.315078711e-02 9.882803306e-01 -1.135128635e-01 9.889602653e-01 -1.150228626e-01 -4.499983437e-03 -1.194281529e-02
5.700000e+08 -4.727400518e-03 -1.337743378e-02 9.880979688e-01 -1.154786186e-01 9.887320273e-01 -1.170533492e-01 -4.558831487e-03 -1.215475306e-02
5.800000e+08 -4.779218493e-03 -1.360484273e-02 9.879122944e-01 -1.174481883e-01 9.884995754e-01 -1.190837669e-01 -4.618955551e-03 -1.236681575e-02
5.900000e+08 -4.832242592e-03 -1.383297360e-02 9.877229830e-01 -1.194214515e-01 9.882628126e-01 -1.211141010e-01 -4.680369010e-03 -1.257897963e-02
6.000000e+08 -4.886526862e-03 -1.406178432e-02 9.875297328e-01 -1.213982781e-01 9.880216501e-01 -1.231443354e-01 -4.743084028e-03 -1.279122055e-02
6.100000e+08 -4.942121210e-03 -1.429123147e-02 9.873322637e-01 -1.233785308e-01 9.877760064e-01 -1.251744527e-01 -4.807111576e-03 -1.300351403e-02
6.200000e+08 -4.999071520e-03 -1.452127045e-02 9.871303169e-01 -1.253620660e-01 9.875258075e-01 -1.272044346e-01 -4.872461465e-03 -1.321583539e-02
6.300000e+08 -5.057419772e-03 -1.475185582e-02 9.869236542e-01 -1.273487346e-01 9.872709865e-01 -1.292342617e-01 -4.939142386e-03 -1.342815980e-02
6.400000e+08 -5.117204171e-03 -1.498294144e-02 9.867120572e-01 -1.293383836e-01 9.870114834e-01 -1.312639137e-01 -5.007161937e-03 -1.364046240e-02
6.500000e+08 -5.178459281e-03 -1.521448074e-02 9.864953269e-01 -1.313308563e-01 9.867472446e-01 -1.332933697e-01 -5.076526668e-03 -1.385271837e-02
6.600000e+08 -5.241216154e-03 -1.544642690e-02 9.862732825e-01 -1.333259937e-01 9.864782230e-01 -1.353226081e-01 -5.147242114e-03 -1.406490298e-02
6.700000e+08 -5.305502472e-03 -1.567873302e-02 9.860457610e-01 -1.353236350e-01 9.862043774e-01 -1.373516066e-01 -5.219312836e-03 -1.427699171e-02
6.800000e+08 -5.371342687e-03 -1.591135227e-02 9.858126164e-01 -1.373236184e-01 9.859256723e-01 -1.393803426e-01 -5.292742462e-03 -1.448896024e-02
6.900000e+08 -5.438758153e-03 -1.614423805e-02 9.855737189e-01 -1.393257815e-01 9.856420777e-01 -1.414087930e-01 -5.367533724e-03 -1.470078456e-02
7.000000e+08 -5.507767273e-03 -1.637734415e-02 9.853289542e-01 -1.413299625e-01 9.853535689e-01 -1.434369344e-01 -5.443688502e-03 -1.491244101e-02
7.100000e+08 -5.578385637e-03 -1.661062482e-02 9.850782226e-01 -1.433359997e-01 9.850601257e-01 -1.454647432e-01 -5.521207862e-03 -1.512390628e-02
7.200000e+08 -5.650626156e-03 -1.684403492e-02 9.848214386e-01 -1.453437333e-01 9.847617328e-01 -1.474921955e-01 -5.600092096e-03 -1.533515752e-02
7.300000e+08 -5.724499202e-03 -1.707752999e-02 9.845585297e-01 -1.473530046e-01 9.844583793e-01 -1.495192674e-01 -5.680340764e-03 -1.554617232e-02
7.400000e+08 -5.800012743e-03 -1.731106638e-02 9.842894362e-01 -1.493636572e-01 9.841500582e-01 -1.515459347e-01 -5.761952731e-03 -1.575692877e-02
7.500000e+08 -5.877172473e-03 -1.754460128e-02 9.840141101e-01 -1.513755371e-01 9.838367663e-01 -1.535721735e-01 -5.844926208e-03 -1.596740548e-02
7.600000e+08 -5.955981945e-03 -1.777809281e-02 9.837325146e-01 -1.533884929e-01 9.835185040e-01 -1.555979596e-01 -5.929258791e-03 -1.617758158e-02
7.700000e+08 -6.036442696e-03 -1.801150010e-02 9.834446235e-01 -1.554023763e-01 9.831952751e-01 -1.576232691e-01 -6.014947498e-03 -1.638743678e-02
7.800000e+08 -6.118554373e-03 -1.824478329e-02 9.831504201e-01 -1.574170422e-01 9.828670862e-01 -1.596480780e-01 -6.101988805e-03 -1.659695137e-02
7.900000e+08 -6.202314854e-03 -1.847790363e-02 9.828498972e-01 -1.594323491e-01 9.825339471e-01 -1.616723625e-01 -6.190378684e-03 -1.680610620e-02
8.000000e+08 -6.287720366e-03 -1.871082350e-02 9.825430560e-01 -1.614481590e-01 9.821958698e-01 -1.636960991e-01 -6.280112639e-03 -1.701488276e-02
8.100000e+08 -6.374765598e-03 -1.894350642e-02 9.822299059e-01 -1.634643378e-01 9.818528689e-01 -1.657192642e-01 -6.371185737e-03 -1.722326311e-02
8.200000e+08 -6.463443813e-03 -1.917591710e-02 9.819104635e-01 -1.654807552e-01 9.815049612e-01 -1.677418349e-01 -6.463592646e-03 -1.743122995e-02
8.300000e+08 -6.553746956e-03 -1.940802143e-02 9.815847521e-01 -1.674972853e-01 9.811521652e-01 -1.697637880e-01 -6.557327663e-03 -1.763876657e-02
8.400000e+08 -6.645665755e-03 -1.963978654e-02 9.812528015e-01 -1.695138061e-01 9.807945015e-01 -1.717851010e-01 -6.652384751e-03 -1.784585689e-02
8.500000e+08 -6.739189825e-03 -1.987118077e-02 9.809146474e-01 -1.715301998e-01 9.804319920e-01 -1.738057515e-01 -6.748757562e-03 -1.805248545e-02
8.600000e+08 -6.834307758e-03 -2.010217368e-02 9.805703303e-01 -1.735463532e-01 9.800646602e-01 -1.758257174e-01 -6.846439473e-03 -1.825863737e-02
8.700000e+08 -6.931007221e-03 -2.033273606e-02 9.802198959e-01 -1.755621571e-01 9.796925306e-01 -1.778449770e-01 -6.945423609e-03 -1.846429840e-02
8.800000e+08 -7.029275040e-03 -2.056283993e-02 9.798633941e-01 -1.775775068e-01 9.793156290e-01 -1.798635090e-01 -7.045702874e-03 -1.866945489e-02
8.900000e+08 -7.129097289e-03 -2.079245852e-02 9.795008787e-01 -1.795923020e-01 9.789339820e-01 -1.818812923e-01 -7.147269974e-03 -1.887409374e-02
9.000000e+08 -7.230459367e-03 -2.102156626e-02 9.791324069e-01 -1.816064466e-01 9.785476168e-01 -1.838983063e-01 -7.250117443e-03 -1.907820248e-02
9.100000e+08 -7.333346074e-03 -2.125013878e-02 9.787580390e-01 -1.836198489e-01 9.781565615e-01 -1.859145307e-01 -7.354237665e-03 -1.928176918e-02
9.200000e+08 -7.437741691e-03 -2.147815288e-02 9.783778381e-01 -1.856324217e-01 9.777608445e-01 -1.879299457e-01 -7.459622900e-03 -1.948478246e-02
9.300000e+08 -7.543630044e-03 -2.170558652e-02 9.779918694e-01 -1.876440818e-01 9.773604945e-01 -1.899445317e-01 -7.566265301e-03 -1.968723151e-02
9.400000e+08 -7.650994571e-03 -2.193241880e-02 9.776002004e-01 -1.896547502e-01 9.769555407e-01 -1.919582696e-01 -7.674156937e-03 -1.988910602e-02
9.500000e+08 -7.759818389e-03 -2.215862993e-02 9.772028999e-01 -1.916643522e-01 9.765460122e-01 -1.939711409e-01 -7.783289811e-03 -2.009039623e-02
9.600000e+08 -7.870084348e-03 -2.238420124e-02 9.768000384e-01 -1.936728173e-01 9.761319383e-01 -1.959831272e-01 -7.893655881e-03 -2.029109284e-02
9.700000e+08 -7.981775092e-03 -2.260911507e-02 9.763916873e-01 -1.956800787e-01 9.757133481e-01 -1.979942106e-01 -8.005247071e-03 -2.049118708e-02
9.800000e+08 -8.094873107e-03 -2.283335487e-02 9.759779188e-01 -1.976860738e-01 9.752902705e-01 -2.000043739e-01 -8.118055295e-03 -2.069067063e-02
9.900000e+08 -8.209360778e-03 -2.305690504e-02 9.755588056e-01 -1.996907437e-01 9.748627343e-01 -2.020135998e-01 -8.232072463e-03 -2.088953561e-02
1.000000e+09 -8.325220428e-03 -2.327975100e-02 9.751344209e-01 -2.016940335e-01 9.744307680e-01 -2.040218718e-01 -8.347290505e-03 -2.108777460e-02
1.010000e+09 -8.442434366e-03 -2.350187913e-02 9.747048377e-01 -2.036958918e-01 9.739943996e-01 -2.060291738e-01 -8.463701378e-03 -2.128538060e-02
1.020000e+09 -8.560984930e-03 -2.372327671e-02 9.742701291e-01 -2.056962708e-01 9.735536568e-01 -2.080354899e-01 -8.581297077e-03 -2.148234701e-02
1.030000e+09 -8.680854521e-03 -2.394393193e-02 9.738303678e-01 -2.076951263e-01 9.731085665e-01 -2.100408047e-01 -8.700069653e-03 -2.167866761e-02
1.040000e+09 -8.802025640e-03 -2.416383386e-02 9.733856259e-01 -2.096924175e-01 9.726591554e-01 -2.120451034e-01 -8.820011219e-03 -2.187433655e-02
1.050000e+09 -8.924480924e-03 -2.438297236e-02 9.729359750e-01 -2.116881068e-01 9.722054494e-01 -2.140483714e-01 -8.941113959e-03 -2.206934837e-02
1.060000e+09 -9.048203172e-03 -2.460133814e-02 9.724814858e-01 -2.136821599e-01 9.717474737e-01 -2.160505944e-01 -9.063370140e-03 -2.226369789e-02
1.070000e+09 -9.173175379e-03 -2.481892265e-02 9.720222279e-01 -2.156745456e-01 9.712852529e-01 -2.180517589e-01 -9.186772119e-03 -2.245738030e-02
1.080000e+09 -9.299380755e-03 -2.503571811e-02 9.715582699e-01 -2.176652355e-01 9.708188109e-01 -2.200518513e-01 -9.311312351e-03 -2.265039108e-02
1.090000e+09 -9.426802755e-03 -2.525171741e-02 9.710896793e-01 -2.196542044e-01 9.703481706e-01 -2.220508588e-01 -9.436983395e-03 -2.284272598e-02
1.100000e+09 -9.555425100e-03 -2.546691415e-02 9.706165221e-01 -2.216414298e-01 9.698733545e-01 -2.240487688e-01 -9.563777921e-03 -2.303438105e-02
1.110000e+09 -9.685231792e-03 -2.568130256e-02 9.701388629e-01 -2.236268917e-01 9.693943839e-01 -2.260455691e-01 -9.691688715e-03 -2.322535257e-02
1.120000e+09 -9.816207139e-03 -2.589487751e-02 9.696567647e-01 -2.256105729e-01 9.689112796e-01 -2.280412478e-01 -9.820708685e-03 -2.341563708e-02
1.130000e+09 -9.948335766e-03 -2.610763444e-02 9.691702892e-01 -2.275924586e-01 9.684240613e-01 -2.300357934e-01 -9.950830865e-03 -2.360523135e-02
1.140000e+09 -1.008160263e-02 -2.631956936e-02 9.686794961e-01 -2.295725363e-01 9.679327479e-01 -2.320291950e-01 -1.008204842e-02 -2.379413234e-02
1.150000e+09 -1.021599304e-02 -2.653067878e-02 9.681844435e-01 -2.315507959e-01 9.674373576e-01 -2.340214416e-01 -1.021435464e-02 -2.398233721e-02
1.160000e+09 -1.035149266e-02 -2.674095976e-02 9.676851877e-01 -2.335272296e-01 9.669379076e-01 -2.360125230e-01 -1.034774296e-02 -2.416984332e-02
1.170000e+09 -1.048808751e-02 -2.695040980e-02 9.671817831e-01 -2.355018313e-01 9.664344142e-01 -2.380024291e-01 -1.048220695e-02 -2.435664819e-02
1.180000e+09 -1.062576401e-02 -2.715902686e-02 9.666742824e-01 -2.374745973e-01 9.659268928e-01 -2.399911500e-01 -1.061774033e-02 -2.454274947e-02
1.190000e+09 -1.076450894e-02 -2.736680931e-02 9.661627360e-01 -2.394455255e-01 9.654153581e-01 -2.419786765e-01 -1.075433694e-02 -2.472814499e-02
1.200000e+09 -1.090430949e-02 -2.757375591e-02 9.656471929e-01 -2.414146158e-01 9.648998237e-01 -2.439649994e-01 -1.089199078e-02 -2.491283269e-02
1.210000e+09 -1.104515322e-02 -2.777986581e-02 9.651276996e-01 -2.433818696e-01 9.643803024e-01 -2.459501100e-01 -1.103069599e-02 -2.509681061e-02
1.220000e+09 -1.118702812e-02 -2.798513849e-02 9.646043009e-01 -2.453472901e-01 9.638568063e-01 -2.479339997e-01 -1.117044685e-02 -2.528007692e-02
1.230000e+09 -1.132992255e-02 -2.818957373e-02 9.640770397e-01 -2.473108820e-01 9.633293465e-01 -2.499166604e-01 -1.131123779e-02 -2.546262988e-02
1.240000e+09 -1.147382530e-02 -2.839317164e-02 9.635459566e-01 -2.492726514e-01 9.627979332e-01 -2.518980842e-01 -1.145306339e-02 -2.564446781e-02
1.250000e+09 -1.161872553e-02 -2.859593259e-02 9.630110904e-01 -2.512326057e-01 9.622625760e-01 -2.538782635e-01 -1.159591836e-02 -2.582558912e-02
1.260000e+09 -1.176461284e-02 -2.879785718e-02 9.624724779e-01 -2.531907536e-01 9.617232834e-01 -2.558571908e-01 -1.173979755e-02 -2.600599226e-02
1.270000e+09 -1.191147721e-02 -2.899894625e-02 9.619301537e-01 -2.551471052e-01 9.611800633e-01 -2.578348592e-01 -1.188469598e-02 -2.618567577e-02
1.280000e+09 -1.205930904e-02 -2.919920087e-02 9.613841507e-01 -2.571016715e-01 9.606329229e-01 -2.598112617e-01 -1.203060877e-02 -2.636463818e-02
1.290000e+09 -1.220809910e-02 -2.939862227e-02 9.608344996e-01 -2.590544645e-01 9.600818683e-01 -2.617863917e-01 -1.217753121e-02 -2.654287809e-02
1.300000e+09 -1.235783860e-02 -2.959721185e-02 9.602812292e-01 -2.610054973e-01 9.595269053e-01 -2.637602430e-01 -1.232545872e-02 -2.672039410e-02
1.310000e+09 -1.250851910e-02 -2.979497117e-02 9.597243665e-01 -2.629547838e-01 9.589680385e-01 -2.657328093e-01 -1.247438686e-02 -2.689718482e-02
1.320000e+09 -1.266013258e-02 -2.999190191e-02 9.591639364e-01 -2.649023389e-01 9.584052722e-01 -2.677040848e-01 -1.262431131e-02 -2.707324890e-02
1.330000e+09 -1.281267139e-02 -3.018800586e-02 9.585999619e-01 -2.668481781e-01 9.578386099e-01 -2.696740636e-01 -1.277522789e-02 -2.724858494e-02
1.340000e+09 -1.296612826e-02 -3.038328492e-02 9.580324642e-01 -2.687923175e-01 9.572680542e-01 -2.716427404e-01 -1.292713255e-02 -2.742319158e-02
1.350000e+09 -1.312049632e-02 -3.057774106e-02 9.574614627e-01 -2.707347740e-01 9.566936074e-01 -2.736101097e-01 -1.308002136e-02 -2.759706739e-02
1.360000e+09 -1.327576903e-02 -3.077137631e-02 9.568869750e-01 -2.726755649e-01 9.561152710e-01 -2.755761664e-01 -1.323389053e-02 -2.777021096e-02
1.370000e+09 -1.343194025e-02 -3.096419274e-02 9.563090167e-01 -2.746147082e-01 9.555330460e-01 -2.775409056e-01 -1.338873638e-02 -2.794262084e-02
1.380000e+09 -1.358900417e-02 -3.115619248e-02 9.557276019e-01 -2.765522221e-01 9.549469326e-01 -2.795043225e-01 -1.354455535e-02 -2.811429552e-02
1.390000e+09 -1.374695534e-02 -3.134737764e-02 9.551427430e-01 -2.784881253e-01 9.543569309e-01 -2.814664123e-01 -1.370134399e-02 -2.828523349e-02
1.400000e+09 -1.390578867e-02 -3.153775037e-02 9.545544505e-01 -2.804224368e-01 9.537630400e-01 -2.834271706e-01 -1.385909897e-02 -2.845543316e-02
1.410000e+09 -1.406549938e-02 -3.172731278e-02 9.539627334e-01 -2.823551759e-01 9.531652588e-01 -2.853865930e-01 -1.401781708e-02 -2.862489290e-02
1.420000e+09 -1.422608303e-02 -3.191606700e-02 9.533675991e-01 -2.842863621e-01 9.525635856e-01 -2.873446753e-01 -1.417749519e-02 -2.879361103e-02
1.430000e+09 -1.438753551e-02 -3.210401507e-02 9.527690535e-01 -2.862160149e-01 9.519580184e-01 -2.893014133e-01 -1.433813030e-02 -2.896158579e-02
1.440000e+09 -1.454985301e-02 -3.229115905e-02 9.521671008e-01 -2.881441541e-01 9.513485545e-01 -2.912568030e-01 -1.449971950e-02 -2.912881538e-02
1.450000e+09 -1.471303203e-02 -3.247750088e-02 9.515617439e-01 -2.900707995e-01 9.507351912e-01 -2.932108404e-01 -1.466225996e-02 -2.929529791e-02
1.460000e+09 -1.487706937e-02 -3.266304248e-02 9.509529842e-01 -2.919959708e-01 9.501179249e-01 -2.951635219e-01 -1.482574898e-02 -2.946103143e-02
1.470000e+09 -1.504196212e-02 -3.284778568e-02 9.503408216e-01 -2.939196879e-01 9.494967523e-01 -2.971148435e-01 -1.499018392e-02 -2.962601391e-02
1.480000e+09 -1.520770765e-02 -3.303173220e-02 9.497252549e-01 -2.958419703e-01 9.488716691e-01 -2.990648017e-01 -1.515556223e-02 -2.979024323e-02
1.490000e+09 -1.537430359e-02 -3.321488371e-02 9.491062813e-01 -2.977628377e-01 9.482426713e-01 -3.010133928e-01 -1.532188146e-02 -2.995371721e-02
1.500000e+09 -1.554174786e-02 -3.339724174e-02 9.484838968e-01 -2.996823094e-01 9.476097541e-01 -3.029606132e-01 -1.548913922e-02 -3.011643357e-02
1.510000e+09 -1.571003860e-02 -3.357880771e-02 9.478580964e-01 -3.016004046e-01 9.469729129e-01 -3.049064595e-01 -1.565733320e-02 -3.027838995e-02
1.520000e+09 -1.587917422e-02 -3.375958292e-02 9.472288737e-01 -3.035171422e-01 9.463321426e-01 -3.068509281e-01 -1.582646118e-02 -3.043958390e-02
1.530000e+09 -1.604915337e-02 -3.393956856e-02 9.465962211e-01 -3.054325408e-01 9.456874380e-01 -3.087940156e-01 -1.599652099e-02 -3.060001286e-02
1.540000e+09 -1.621997492e-02 -3.411876566e-02 9.459601301e-01 -3.073466187e-01 9.450387936e-01 -3.107357185e-01 -1.616751053e-02 -3.075967421e-02
1.550000e+09 -1.639163795e-02 -3.429717511e-02 9.453205911e-01 -3.092593939e-01 9.443862039e-01 -3.126760335e-01 -1.633942776e-02 -3.091856521e-02
1.560000e+09 -1.656414177e-02 -3.447479765e-02 9.446775933e-01 -3.111708838e-01 9.437296632e-01 -3.146149570e-01 -1.651227070e-02 -3.107668304e-02
1.570000e+09 -1.673748587e-02 -3.465163388e-02 9.440311252e-01 -3.130811056e-01 9.430691656e-01 -3.165524856e-01 -1.668603742e-02 -3.123402477e-02
1.580000e+09 -1.691166995e-02 -3.482768421e-02 9.433811743e-01 -3.149900758e-01 9.424047052e-01 -3.184886158e-01 -1.686072606e-02 -3.139058738e-02
1.590000e+09 -1.708669389e-02 -3.500294890e-02 9.427277270e-01 -3.168978105e-01 9.417362761e-01 -3.204233442e-01 -1.703633477e-02 -3.154636775e-02
1.600000e+09 -1.726255774e-02 -3.517742802e-02 9.420707692e-01 -3.188043255e-01 9.410638723e-01 -3.223566672e-01 -1.721286178e-02 -3.170136266e-02
1.610000e+09 -1.743926171e-02 -3.535112148e-02 9.414102857e-01 -3.207096355e-01 9.403874877e-01 -3.242885812e-01 -1.739030534e-02 -3.185556880e-02
1.620000e+09 -1.761680619e-02 -3.552402898e-02 9.407462609e-01 -3.226137552e-01 9.397071162e-01 -3.262190826e-01 -1.756866373e-02 -3.200898274e-02
1.630000e+09 -1.779519168e-02 -3.569615007e-02 9.400786781e-01 -3.245166981e-01 9.390227518e-01 -3.281481677e-01 -1.774793528e-02 -3.216160097e-02
1.640000e+09 -1.797441885e-02 -3.586748406e-02 9.394075202e-01 -3.264184775e-01 9.383343885e-01 -3.300758326e-01 -1.792811834e-02 -3.231341986e-02
1.650000e+09 -1.815448849e-02 -3.603803009e-02 9.387327694e-01 -3.283191058e-01 9.376420204e-01 -3.320020735e-01 -1.810921128e-02 -3.246443571e-02
1.660000e+09 -1.833540149e-02 -3.620778709e-02 9.380544072e-01 -3.302185946e-01 9.369456416e-01 -3.339268864e-01 -1.829121250e-02 -3.261464468e-02
1.670000e+09 -1.851715889e-02 -3.637675380e-02 9.373724149e-01 -3.321169550e-01 9.362452463e-01 -3.358502673e-01 -1.847412041e-02 -3.276404288e-02
1.680000e+09 -1.869976179e-02 -3.654492872e-02 9.366867729e-01 -3.340141972e-01 9.355408289e-01 -3.377722120e-01 -1.865793342e-02 -3.291262628e-02
1.690000e+09 -1.888321140e-02 -3.671231018e-02 9.359974614e-01 -3.359103305e-01 9.348323838e-01 -3.396927162e-01 -1.884264999e-02 -3.306039078e-02
1.700000e+09 -1.906750903e-02 -3.687889625e-02 9.353044601e-01 -3.378053636e-01 9.341199057e-01 -3.416117754e-01 -1.902826854e-02 -3.320733217e-02
1.710000e+09 -1.925265603e-02 -3.704468482e-02 9.346077483e-01 -3.396993043e-01 9.334033893e-01 -3.435293852e-01 -1.921478753e-02 -3.335344615e-02
1.720000e+09 -1.943865385e-02 -3.720967354e-02 9.339073050e-01 -3.415921592e-01 9.326828297e-01 -3.454455408e-01 -1.940220538e-02 -3.349872832e-02
1.730000e+09 -1.962550396e-02 -3.737385985e-02 9.332031089e-01 -3.434839346e-01 9.319582220e-01 -3.473602373e-01 -1.959052054e-02 -3.364317420e-02
1.740000e+09 -1.981320790e-02 -3.753724094e-02 9.324951385e-01 -3.453746354e-01 9.312295615e-01 -3.492734697e-01 -1.977973144e-02 -3.378677921e-02
1.750000e+09 -2.000176725e-02 -3.769981382e-02 9.317833720e-01 -3.472642658e-01 9.304968440e-01 -3.511852329e-01 -1.996983649e-02 -3.392953869e-02
1.760000e+09 -2.019118359e-02 -3.786157522e-02 9.310677875e-01 -3.491528290e-01 9.297600652e-01 -3.530955215e-01 -2.016083408e-02 -3.407144788e-02
1.770000e+09 -2.038145856e-02 -3.802252169e-02 9.303483630e-01 -3.510403272e-01 9.290192214e-01 -3.550043299e-01 -2.035272260e-02 -3.421250195e-02
1.780000e+09 -2.057259377e-02 -3.818264951e-02 9.296250762e-01 -3.529267616e-01 9.282743089e-01 -3.569116524e-01 -2.054550039e-02 -3.435269596e-02
1.790000e+09 -2.076459086e-02 -3.834195475e-02 9.288979050e-01 -3.548121324e-01 9.275253244e-01 -3.588174831e-01 -2.073916579e-02 -3.449202493e-02
1.800000e+09 -2.095745144e-02 -3.850043325e-02 9.281668271e-01 -3.566964387e-01 9.267722650e-01 -3.607218158e-01 -2.093371708e-02 -3.463048377e-02
1.810000e+09 -2.115117711e-02 -3.865808060e-02 9.274318205e-01 -3.585796788e-01 9.260151279e-01 -3.626246441e-01 -2.112915253e-02 -3.476806732e-02
1.820000e+09 -2.134576944e-02 -3.881489217e-02 9.266928629e-01 -3.604618495e-01 9.252539108e-01 -3.645259615e-01 -2.132547037e-02 -3.490477035e-02
1.830000e+09 -2.154122997e-02 -3.897086311e-02 9.259499323e-01 -3.623429469e-01 9.244886118e-01 -3.664257612e-01 -2.152266876e-02 -3.504058756e-02
1.840000e+09 -2.173756018e-02 -3.912598830e-02 9.252030070e-01 -3.642229658e-01 9.237192290e-01 -3.683240361e-01 -2.172074584e-02 -3.517551357e-02
1.850000e+09 -2.193476150e-02 -3.928026243e-02 9.244520652e-01 -3.661019001e-01 9.229457613e-01 -3.702207789e-01 -2.191969970e-02 -3.530954296e-02
1.860000e+09 -2.213283531e-02 -3.943367992e-02 9.236970855e-01 -3.679797421e-01 9.221682077e-01 -3.721159822e-01 -2.211952836e-02 -3.544267022e-02
1.870000e+09 -2.233178288e-02 -3.958623499e-02 9.229380467e-01 -3.698564835e-01 9.213865678e-01 -3.740096381e-01 -2.232022980e-02 -3.557488980e-02
1.880000e+09 -2.253160543e-02 -3.973792160e-02 9.221749280e-01 -3.717321146e-01 9.206008413e-01 -3.759017386e-01 -2.252180193e-02 -3.570619608e-02
1.890000e+09 -2.273230407e-02 -3.988873351e-02 9.214077087e-01 -3.736066244e-01 9.198110284e-01 -3.777922754e-01 -2.272424260e-02 -3.583658340e-02
1.900000e+09 -2.293387980e-02 -4.003866423e-02 9.206363689e-01 -3.754800009e-01 9.190171300e-01 -3.796812400e-01 -2.292754959e-02 -3.596604604e-02
1.910000e+09 -2.313633352e-02 -4.018770704e-02 9.198608886e-01 -3.773522309e-01 9.182191471e-01 -3.815686235e-01 -2.313172061e-02 -3.609457825e-02
1.920000e+09 -2.333966599e-02 -4.033585503e-02 9.190812488e-01 -3.792233000e-01 9.174170811e-01 -3.834544168e-01 -2.333675329e-02 -3.622217421e-02
1.930000e+09 -2.354387786e-02 -4.048310104e-02 9.182974305e-01 -3.810931925e-01 9.166109341e-01 -3.853386106e-01 -2.354264519e-02 -3.634882810e-02
1.940000e+09 -2.374896961e-02 -4.062943768e-02 9.175094157e-01 -3.829618915e-01 9.158007083e-01 -3.872211951e-01 -2.374939379e-02 -3.647453403e-02
1.950000e+09 -2.395494159e-02 -4.077485736e-02 9.167171868e-01 -3.848293789e-01 9.149864068e-01 -3.891021604e-01 -2.395699648e-02 -3.659928611e-02
1.960000e+09 -2.416179398e-02 -4.091935229e-02 9.159207266e-01 -3.866956355e-01 9.141680326e-01 -3.909814964e-01 -2.416545055e-02 -3.672307840e-02
1.970000e+09 -2.436952677e-02 -4.106291445e-02 9.151200188e-01 -3.885606407e-01 9.133455896e-01 -3.928591924e-01 -2.437475321e-02 -3.684590496e-02
1.980000e+09 -2.457813980e-02 -4.120553560e-02 9.143150479e-01 -3.904243728e-01 9.125190819e-01 -3.947352377e-01 -2.458490159e-02 -3.696775982e-02
1.990000e+09 -2.478763269e-02 -4.134720733e-02 9.135057990e-01 -3.922868087e-01 9.116885142e-01 -3.966096211e-01 -2.479589269e-02 -3.708863701e-02
2.000000e+09 -2.499800487e-02 -4.148792101e-02 9.126922578e-01 -3.941479242e-01 9.108538916e-01 -3.984823312e-01 -2.500772343e-02 -3.720853053e-02
2.010000e+09 -2.520925555e-02 -4.162766781e-02 9.118744113e-01 -3.960076939e-01 9.100152196e-01 -4.003533565e-01 -2.522039061e-02 -3.732743441e-02
2.020000e+09 -2.542138374e-02 -4.176643874e-02 9.110522468e-01 -3.978660910e-01 9.091725042e-01 -4.022226848e-01 -2.543389095e-02 -3.744534265e-02
2.030000e+09 -2.563438817e-02 -4.190422459e-02 9.102257530e-01 -3.997230877e-01 9.083257521e-01 -4.040903040e-01 -2.564822102e-02 -3.756224929e-02
2.040000e+09 -2.584826738e-02 -4.204101600e-02 9.093949192e-01 -4.015786548e-01 9.074749700e-01 -4.059562014e-01 -2.586337731e-02 -3.767814835e-02
2.050000e+09 -2.606301963e-02 -4.217680342e-02 9.085597359e-01 -4.034327621e-01 9.066201654e-01 -4.078203644e-01 -2.607935617e-02 -3.779303391e-02
2.060000e+09 -2.627864291e-02 -4.231157714e-02 9.077201946e-01 -4.052853779e-01 9.057613462e-01 -4.096827796e-01 -2.629615385e-02 -3.790690002e-02
2.070000e+09 -2.649513495e-02 -4.244532730e-02 9.068762877e-01 -4.071364696e-01 9.048985207e-01 -4.115434338e-01 -2.651376646e-02 -3.801974081e-02
2.080000e+09 -2.671249320e-02 -4.257804388e-02 9.060280089e-01 -4.089860034e-01 9.040316976e-01 -4.134023133e-01 -2.673218999e-02 -3.813155043e-02
2.090000e+09 -2.693071481e-02 -4.270971671e-02 9.051753531e-01 -4.108339442e-01 9.031608863e-01 -4.152594042e-01 -2.695142033e-02 -3.824232304e-02
2.100000e+09 -2.714979662e-02 -4.284033549e-02 9.043183160e-01 -4.126802558e-01 9.022860963e-01 -4.171146923e-01 -2.717145319e-02 -3.835205290e-02
2.110000e+09 -2.736973517e-02 -4.296988981e-02 9.034568951e-01 -4.145249012e-01 9.014073378e-01 -4.189681631e-01 -2.739228419e-02 -3.846073429e-02
2.120000e+09 -2.759052668e-02 -4.309836912e-02 9.025910887e-01 -4.163678418e-01 9.005246212e-01 -4.208198020e-01 -2.761390881e-02 -3.856836156e-02
2.130000e+09 -2.781216702e-02 -4.322576277e-02 9.017208967e-01 -4.182090384e-01 8.996379575e-01 -4.226695941e-01 -2.783632237e-02 -3.867492912e-02
2.140000e+09 -2.803465173e-02 -4.335206001e-02 9.008463202e-01 -4.200484505e-01 8.987473581e-01 -4.245175242e-01 -2.805952009e-02 -3.878043145e-02
2.150000e+09 -2.825797599e-02 -4.347725002e-02 8.999673618e-01 -4.218860367e-01 8.978528346e-01 -4.263635770e-01 -2.828349702e-02 -3.888486314e-02
2.160000e+09 -2.848213463e-02 -4.360132188e-02 8.990840255e-01 -4.237217548e-01 8.969543992e-01 -4.282077370e-01 -2.850824809e-02 -3.898821882e-02
2.170000e+09 -2.870712211e-02 -4.372426463e-02 8.981963167e-01 -4.255555613e-01 8.960520644e-01 -4.300499883e-01 -2.873376808e-02 -3.909049324e-02
2.180000e+09 -2.893293250e-02 -4.384606724e-02 8.973042424e-01 -4.273874123e-01 8.951458431e-01 -4.318903152e-01 -2.896005164e-02 -3.919168125e-02
2.190000e+09 -2.915955949e-02 -4.396671867e-02 8.964078113e-01 -4.292172628e-01 8.942357484e-01 -4.337287015e-01 -2.918709327e-02 -3.929177781e-02
2.200000e+09 -2.938699637e-02 -4.408620783e-02 8.955070333e-01 -4.310450669e-01 8.933217939e-01 -4.355651311e-01 -2.941488732e-02 -3.939077798e-02
2.210000e+09 -2.961523603e-02 -4.420452364e-02 8.946019203e-01 -4.328707784e-01 8.924039934e-01 -4.373995876e-01 -2.964342801e-02 -3.948867695e-02
2.220000e+09 -2.984427094e-02 -4.432165501e-02 8.936924857e-01 -4.346943500e-01 8.914823610e-01 -4.392320546e-01 -2.987270941e-02 -3.958547004e-02
2.230000e+09 -3.007409315e-02 -4.443759090e-02 8.927787446e-01 -4.365157341e-01 8.905569112e-01 -4.410625155e-01 -3.010272546e-02 -3.968115270e-02
2.240000e+09 -3.030469430e-02 -4.455232029e-02 8.918607140e-01 -4.383348824e-01 8.896276586e-01 -4.428909539e-01 -3.033346996e-02 -3.977572053e-02
2.250000e+09 -3.053606558e-02 -4.466583221e-02 8.909384124e-01 -4.401517462e-01 8.886946180e-01 -4.447173531e-01 -3.056493655e-02 -3.986916929e-02
2.260000e+09 -3.076819773e-02 -4.477811579e-02 8.900118603e-01 -4.419662765e-01 8.877578046e-01 -4.465416965e-01 -3.079711875e-02 -3.996149487e-02
2.270000e+09 -3.100108106e-02 -4.488916024e-02 8.890810800e-01 -4.437784238e-01 8.868172336e-01 -4.483639675e-01 -3.103000994e-02 -4.005269336e-02
2.280000e+09 -3.123470543e-02 -4.499895490e-02 8.881460958e-01 -4.455881385e-01 8.858729204e-01 -4.501841495e-01 -3.126360338e-02 -4.014276100e-02
2.290000e+09 -3.146906024e-02 -4.510748922e-02 8.872069335e-01 -4.473953708e-01 8.849248806e-01 -4.520022259e-01 -3.149789217e-02 -4.023169424e-02
2.300000e+09 -3.170413442e-02 -4.521475283e-02 8.862636213e-01 -4.492000711e-01 8.839731299e-01 -4.538181805e-01 -3.173286931e-02 -4.031948968e-02
2.310000e+09 -3.193991644e-02 -4.532073552e-02 8.853161891e-01 -4.510021895e-01 8.830176839e-01 -4.556319969e-01 -3.196852767e-02 -4.040614415e-02
2.320000e+09 -3.217639432e-02 -4.542542732e-02 8.843646687e-01 -4.528016766e-01 8.820585584e-01 -4.574436590e-01 -3.220486000e-02 -4.049165468e-02
2.330000e+09 -3.241355558e-02 -4.552881844e-02 8.834090941e-01 -4.545984831e-01 8.810957691e-01 -4.592531509e-01 -3.244185893e-02 -4.057601850e-02
2.340000e+09 -3.265138730e-02 -4.563089937e-02 8.824495013e-01 -4.563925601e-01 8.801293318e-01 -4.610604569e-01 -3.267951699e-02 -4.065923307e-02
2.350000e+09 -3.288987608e-02 -4.573166087e-02 8.814859280e-01 -4.581838593e-01 8.791592621e-01 -4.628655616e-01 -3.291782661e-02 -4.074129608e-02
2.360000e+09 -3.312900804e-02 -4.583109402e-02 8.805184144e-01 -4.599723331e-01 8.781855755e-01 -4.646684499e-01 -3.315678012e-02 -4.082220545e-02
2.370000e+09 -3.336876885e-02 -4.592919020e-02 8.795470024e-01 -4.617579346e-01 8.772082875e-01 -4.664691071e-01 -3.339636975e-02 -4.090195935e-02
2.380000e+09 -3.360914370e-02 -4.602594119e-02 8.785717362e-01 -4.635406179e-01 8.762274132e-01 -4.682675187e-01 -3.363658768e-02 -4.098055619e-02
2.390000e+09 -3.385011735e-02 -4.612133912e-02 8.775926618e-01 -4.653203382e-01 8.752429676e-01 -4.700636708e-01 -3.387742598e-02 -4.105799463e-02
2.400000e+09 -3.409167407e-02 -4.621537657e-02 8.766098275e-01 -4.670970518e-01 8.742549654e-01 -4.718575501e-01 -3.411887669e-02 -4.113427363e-02
2.410000e+09 -3.433379771e-02 -4.630804657e-02 8.756232834e-01 -4.688707167e-01 8.732634211e-01 -4.736491435e-01 -3.436093178e-02 -4.120939239e-02
2.420000e+09 -3.457647167e-02 -4.639934262e-02 8.746330818e-01 -4.706412922e-01 8.722683485e-01 -4.754384387e-01 -3.460358319e-02 -4.128335038e-02
2.430000e+09 -3.481967893e-02 -4.648925875e-02 8.736392771e-01 -4.724087395e-01 8.712697614e-01 -4.772254241e-01 -3.484682282e-02 -4.135614738e-02
2.440000e+09 -3.506340205e-02 -4.657778952e-02 8.726419254e-01 -4.741730217e-01 8.702676727e-01 -4.790100885e-01 -3.509064256e-02 -4.142778344e-02
2.450000e+09 -3.530762319e-02 -4.666493011e-02 8.716410850e-01 -4.759341041e-01 8.692620953e-01 -4.807924217e-01 -3.533503430e-02 -4.149825890e-02
2.460000e+09 -3.555232412e-02 -4.675067628e-02 8.706368161e-01 -4.776919543e-01 8.682530410e-01 -4.825724140e-01 -3.557998993e-02 -4.156757443e-02
2.470000e+09 -3.579748624e-02 -4.683502447e-02 8.696291806e-01 -4.794465425e-01 8.672405214e-01 -4.843500569e-01 -3.582550137e-02 -4.163573096e-02
2.480000e+09 -3.604309062e-02 -4.691797182e-02 8.686182425e-01 -4.811978414e-01 8.662245471e-01 -4.861253424e-01 -3.607156060e-02 -4.170272976e-02
2.490000e+09 -3.628911797e-02 -4.699951618e-02 8.676040674e-01 -4.829458269e-01 8.652051282e-01 -4.878982637e-01 -3.631815965e-02 -4.176857239e-02
2.500000e+09 -3.653554873e-02 -4.707965618e-02 8.665867227e-01 -4.846904782e-01 8.641822739e-01 -4.896688149e-01 -3.656529061e-02 -4.183326075e-02
2.510000e+09 -3.678236304e-02 -4.715839124e-02 8.655662773e-01 -4.864317777e-01 8.631559924e-01 -4.914369912e-01 -3.681294570e-02 -4.189679702e-02
2.520000e+09 -3.702954080e-02 -4.723572165e-02 8.645428018e-01 -4.881697115e-01 8.621262914e-01 -4.932027889e-01 -3.706111724e-02 -4.195918373e-02
2.530000e+09 -3.727706171e-02 -4.731164856e-02 8.635163682e-01 -4.899042697e-01 8.610931772e-01 -4.949662054e-01 -3.730979769e-02 -4.202042371e-02
2.540000e+09 -3.752490526e-02 -4.738617407e-02 8.624870500e-01 -4.916354466e-01 8.600566552e-01 -4.967272394e-01 -3.755897969e-02 -4.208052011e-02
2.550000e+09 -3.777305082e-02 -4.745930121e-02 8.614549216e-01 -4.933632407e-01 8.590167298e-01 -4.984858910e-01 -3.780865606e-02 -4.213947641e-02
2.560000e+09 -3.802147766e-02 -4.753103404e-02 8.604200589e-01 -4.950876555e-01 8.579734041e-01 -5.002421613e-01 -3.805881982e-02 -4.219729639e-02
2.570000e+09 -3.827016498e-02 -4.760137764e-02 8.593825386e-01 -4.968086991e-01 8.569266801e-01 -5.019960533e-01 -3.830946425e-02 -4.225398415e-02
2.580000e+09 -3.851909197e-02 -4.767033817e-02 8.583424381e-01 -4.985263852e-01 8.558765583e-01 -5.037475710e-01 -3.856058288e-02 -4.230954411e-02
2.590000e+09 -3.876823786e-02 -4.773792294e-02 8.572998357e-01 -5.002407327e-01 8.548230380e-01 -5.054967201e-01 -3.881216955e-02 -4.236398097e-02
2.600000e+09 -3.901758199e-02 -4.780414037e-02 8.562548100e-01 -5.019517663e-01 8.537661171e-01 -5.072435080e-01 -3.906421842e-02 -4.241729974e-02
2.610000e+09 -3.926710384e-02 -4.786900011e-02 8.552074401e-01 -5.036595169e-01 8.527057919e-01 -5.089879434e-01 -3.931672399e-02 -4.246950573e-02
2.620000e+09 -3.951678310e-02 -4.793251303e-02 8.541578049e-01 -5.053640216e-01 8.516420572e-01 -5.107300370e-01 -3.956968119e-02 -4.252060451e-02
2.630000e+09 -3.976659976e-02 -4.799469124e-02 8.531059834e-01 -5.070653242e-01 8.505749061e-01 -5.124698009e-01 -3.982308534e-02 -4.257060194e-02
2.640000e+09 -4.001653415e-02 -4.805554819e-02 8.520520541e-01 -5.087634754e-01 8.495043302e-01 -5.142072493e-01 -4.007693222e-02 -4.261950412e-02
2.650000e+09 -4.026656702e-02 -4.811509862e-02 8.509960948e-01 -5.104585328e-01 8.484303191e-01 -5.159423978e-01 -4.033121811e-02 -4.266731742e-02
2.660000e+09 -4.051667964e-02 -4.817335867e-02 8.499381825e-01 -5.121505619e-01 8.473528609e-01 -5.176752643e-01 -4.058593984e-02 -4.271404841e-02
2.670000e+09 -4.076685385e-02 -4.823034584e-02 8.488783928e-01 -5.138396357e-01 8.462719415e-01 -5.194058680e-01 -4.084109477e-02 -4.275970388e-02
2.680000e+09 -4.101707218e-02 -4.828607904e-02 8.478168000e-01 -5.155258350e-01 8.451875450e-01 -5.211342306e-01 -4.109668090e-02 -4.280429083e-02
2.690000e+09 -4.126731793e-02 -4.834057865e-02 8.467534764e-01 -5.172092491e-01 8.440996537e-01 -5.228603752e-01 -4.135269688e-02 -4.284781642e-02
2.700000e+09 -4.151757524e-02 -4.839386646e-02 8.456884918e-01 -5.188899758e-01 8.430082476e-01 -5.245843272e-01 -4.160914202e-02 -4.289028793e-02
2.710000e+09 -4.176782925e-02 -4.844596576e-02 8.446219139e-01 -5.205681216e-01 8.419133048e-01 -5.263061137e-01 -4.186601640e-02 -4.293171282e-02
2.720000e+09 -4.201806616e-02 -4.849690133e-02 8.435538070e-01 -5.222438019e-01 8.408148012e-01 -5.280257639e-01 -4.212332084e-02 -4.297209858e-02
2.730000e+09 -4.226827334e-02 -4.854669942e-02 8.424842320e-01 -5.239171414e-01 8.397127104e-01 -5.297433088e-01 -4.238105700e-02 -4.301145281e-02
2.740000e+09 -4.251843948e-02 -4.859538778e-02 8.414132461e-01 -5.255882742e-01 8.386070041e-01 -5.314587815e-01 -4.263922741e-02 -4.304978311e-02
2.750000e+09 -4.276855469e-02 -4.864299565e-02 8.403409018e-01 -5.272573438e-01 8.374976515e-01 -5.331722167e-01 -4.289783548e-02 -4.308709708e-02
2.760000e+09 -4.301861063e-02 -4.868955377e-02 8.392672470e-01 -5.289245038e-01 8.363846195e-01 -5.348836514e-01 -4.315688560e-02 -4.312340230e-02
2.770000e+09 -4.326860061e-02 -4.873509433e-02 8.381923242e-01 -5.305899172e-01 8.352678729e-01 -5.365931239e-01 -4.341638314e-02 -4.315870622e-02
2.780000e+09 -4.351851981e-02 -4.877965098e-02 8.371161698e-01 -5.322537574e-01 8.341473742e-01 -5.383006747e-01 -4.367633451e-02 -4.319301619e-02
2.790000e+09 -4.376836531e-02 -4.882325878e-02 8.360388138e-01 -5.339162077e-01 8.330230833e-01 -5.400063458e-01 -4.393674723e-02 -4.322633936e-02
2.800000e+09 -4.401813631e-02 -4.886595418e-02 8.349602790e-01 -5.355774615e-01 8.318949580e-01 -5.417101808e-01 -4.419762993e-02 -4.325868267e-02
2.810000e+09 -4.426783428e-02 -4.890777499e-02 8.338805806e-01 -5.372377225e-01 8.307629539e-01 -5.434122249e-01 -4.445899241e-02 -4.329005276e-02
2.820000e+09 -4.451746306e-02 -4.894876027e-02 8.327997253e-01 -5.388972043e-01 8.296270240e-01 -5.451125246e-01 -4.472084572e-02 -4.332045594e-02
2.830000e+09 -4.476702906e-02 -4.898895034e-02 8.317177108e-01 -5.405561306e-01 8.284871193e-01 -5.468111276e-01 -4.498320215e-02 -4.334989811e-02
2.840000e+09 -4.501654140e-02 -4.902838666e-02 8.306345250e-01 -5.422147351e-01 8.273431884e-01 -5.485080829e-01 -4.524607528e-02 -4.337838469e-02
2.850000e+09 -4.526601211e-02 -4.906711174e-02 8.295501453e-01 -5.438732614e-01 8.261951778e-01 -5.502034404e-01 -4.550948006e-02 -4.340592059e-02
2.860000e+09 -4.551545623e-02 -4.910516910e-02 8.284645378e-01 -5.455319623e-01 8.250430320e-01 -5.518972507e-01 -4.577343278e-02 -4.343251010e-02
2.870000e+09 -4.576489205e-02 -4.914260310e-02 8.273776567e-01 -5.471911003e-01 8.238866931e-01 -5.535895649e-01 -4.603795119e-02 -4.345815683e-02
2.880000e+09 -4.601434123e-02 -4.917945884e-02 8.262894433e-01 -5.488509465e-01 8.227261017e-01 -5.552804347e-01 -4.630305443e-02 -4.348286363e-02
2.890000e+09 -4.626382902e-02 -4.921578205e-02 8.251998253e-01 -5.505117806e-01 8.215611962e-01 -5.569699116e-01 -4.656876314e-02 -4.350663250e-02
2.900000e+09 -4.651338436e-02 -4.925161891e-02 8.241087159e-01 -5.521738906e-01 8.203919135e-01 -5.586580471e-01 -4.683509947e-02 -4.352946452e-02
2.910000e+09 -4.676304016e-02 -4.928701588e-02 8.230160129e-01 -5.538375716e-01 8.192181886e-01 -5.603448920e-01 -4.710208707e-02 -4.355135973e-02
2.920000e+09 -4.701283336e-02 -4.932201957e-02 8.219215980e-01 -5.555031260e-01 8.180399554e-01 -5.620304965e-01 -4.736975111e-02 -4.357231710e-02
2.930000e+09 -4.726280521e-02 -4.935667647e-02 8.208253357e-01 -5.571708619e-01 8.168571463e-01 -5.637149094e-01 -4.763811835e-02 -4.359233433e-02
2.940000e+09 -4.751300134e-02 -4.939103280e-02 8.197270725e-01 -5.588410929e-01 8.156696928e-01 -5.653981783e-01 -4.790721705e-02 -4.361140786e-02
2.950000e+09 -4.776347201e-02 -4.942513422e-02 8.186266359e-01 -5.605141371e-01 8.144775253e-01 -5.670803485e-01 -4.817707707e-02 -4.362953268e-02
2.960000e+09 -4.801427222e-02 -4.945902564e-02 8.175238335e-01 -5.621903157e-01 8.132805737e-01 -5.687614631e-01 -4.844772978e-02 -4.364670227e-02
2.970000e+09 -4.826546193e-02 -4.949275088e-02 8.164184521e-01 -5.638699524e-01 8.120787675e-01 -5.704415622e-01 -4.871920809e-02 -4.366290848e-02
2.980000e+09 -4.851710612e-02 -4.952635242e-02 8.153102569e-01 -5.655533715e-01 8.108720361e-01 -5.721206827e-01 -4.899154644e-02 -4.367814139e-02
2.990000e+09 -4.876927502e-02 -4.955987106e-02 8.141989903e-01 -5.672408971e-01 8.096603091e-01 -5.737988573e-01 -4.926478072e-02 -4.369238926e-02
3.000000e+09 -4.902204422e-02 -4.959334560e-02 8.130843710e-01 -5.689328514e-01 8.084435166e-01 -5.754761147e-01 -4.953894828e-02 -4.370563831e-02
