! rfsim (KiCad + openEMS)
# HZ S RI R 50
5.000000e+08 -9.932019080e-01 6.770778159e-02 -1.010863992e-04 2.972243664e-05 0.000000000e+00 0.000000000e+00 0.000000000e+00 0.000000000e+00
5.100000e+08 -9.929616124e-01 6.899067799e-02 -1.049663543e-04 3.102670257e-05 0.000000000e+00 0.000000000e+00 0.000000000e+00 0.000000000e+00
5.200000e+08 -9.927204688e-01 7.026953188e-02 -1.089229244e-04 3.233407541e-05 0.000000000e+00 0.000000000e+00 0.000000000e+00 0.000000000e+00
5.300000e+08 -9.924785939e-01 7.154456162e-02 -1.129565490e-04 3.364564972e-05 0.000000000e+00 0.000000000e+00 0.000000000e+00 0.000000000e+00
5.400000e+08 -9.922360856e-01 7.281598657e-02 -1.170676376e-04 3.496261169e-05 0.000000000e+00 0.000000000e+00 0.000000000e+00 0.000000000e+00
5.500000e+08 -9.919930245e-01 7.408402550e-02 -1.212565678e-04 3.628622806e-05 0.000000000e+00 0.000000000e+00 0.000000000e+00 0.000000000e+00
5.600000e+08 -9.917494741e-01 7.534889518e-02 -1.255236843e-04 3.761783537e-05 0.000000000e+00 0.000000000e+00 0.000000000e+00 0.000000000e+00
5.700000e+08 -9.915054821e-01 7.661080915e-02 -1.298692978e-04 3.895882979e-05 0.000000000e+00 0.000000000e+00 0.000000000e+00 0.000000000e+00
5.800000e+08 -9.912610815e-01 7.786997649e-02 -1.342936842e-04 4.031065742e-05 0.000000000e+00 0.000000000e+00 0.000000000e+00 0.000000000e+00
5.900000e+08 -9.910162914e-01 7.912660087e-02 -1.387970841e-04 4.167480503e-05 0.000000000e+00 0.000000000e+00 0.000000000e+00 0.000000000e+00
6.000000e+08 -9.907711181e-01 8.038087962e-02 -1.433797025e-04 4.305279122e-05 0.000000000e+00 0.000000000e+00 0.000000000e+00 0.000000000e+00
6.100000e+08 -9.905255561e-01 8.163300300e-02 -1.480417083e-04 4.444615812e-05 0.000000000e+00 0.000000000e+00 0.000000000e+00 0.000000000e+00
6.200000e+08 -9.902795893e-01 8.288315348e-02 -1.527832351e-04 4.585646345e-05 0.000000000e+00 0.000000000e+00 0.000000000e+00 0.000000000e+00
6.300000e+08 -9.900331917e-01 8.413150523e-02 -1.576043811e-04 4.728527304e-05 0.000000000e+00 0.000000000e+00 0.000000000e+00 0.000000000e+00
6.400000e+08 -9.897863289e-01 8.537822368e-02 -1.625052097e-04 4.873415380e-05 0.000000000e+00 0.000000000e+00 0.000000000e+00 0.000000000e+00
6.500000e+08 -9.895389586e-01 8.662346514e-02 -1.674857504e-04 5.020466703e-05 0.000000000e+00 0.000000000e+00 0.000000000e+00 0.000000000e+00
6.600000e+08 -9.892910321e-01 8.786737656e-02 -1.725459996e-04 5.169836226e-05 0.000000000e+00 0.000000000e+00 0.000000000e+00 0.000000000e+00
6.700000e+08 -9.890424945e-01 8.911009535e-02 -1.776859221e-04 5.321677140e-05 0.000000000e+00 0.000000000e+00 0.000000000e+00 0.000000000e+00
6.800000e+08 -9.887932866e-01 9.035174928e-02 -1.829054521e-04 5.476140334e-05 0.000000000e+00 0.000000000e+00 0.000000000e+00 0.000000000e+00
6.900000e+08 -9.885433449e-01 9.159245650e-02 -1.882044952e-04 5.633373893e-05 0.000000000e+00 0.000000000e+00 0.000000000e+00 0.000000000e+00
7.000000e+08 -9.882926030e-01 9.283232552e-02 -1.935829295e-04 5.793522637e-05 0.000000000e+00 0.000000000e+00 0.000000000e+00 0.000000000e+00
7.100000e+08 -9.880409920e-01 9.407145539e-02 -1.990406081e-04 5.956727698e-05 0.000000000e+00 0.000000000e+00 0.000000000e+00 0.000000000e+00
7.200000e+08 -9.877884418e-01 9.530993581e-02 -2.045773607e-04 6.123126135e-05 0.000000000e+00 0.000000000e+00 0.000000000e+00 0.000000000e+00
7.300000e+08 -9.875348810e-01 9.654784739e-02 -2.101929960e-04 6.292850584e-05 0.000000000e+00 0.000000000e+00 0.000000000e+00 0.000000000e+00
7.400000e+08 -9.872802386e-01 9.778526191e-02 -2.158873039e-04 6.466028953e-05 0.000000000e+00 0.000000000e+00 0.000000000e+00 0.000000000e+00
7.500000e+08 -9.870244435e-01 9.902224260e-02 -2.216600578e-04 6.642784143e-05 0.000000000e+00 0.000000000e+00 0.000000000e+00 0.000000000e+00
7.600000e+08 -9.867674261e-01 1.002588445e-01 -2.275110175e-04 6.823233816e-05 0.000000000e+00 0.000000000e+00 0.000000000e+00 0.000000000e+00
7.700000e+08 -9.865091180e-01 1.014951149e-01 -2.334399310e-04 7.007490187e-05 0.000000000e+00 0.000000000e+00 0.000000000e+00 0.000000000e+00
7.800000e+08 -9.862494531e-01 1.027310935e-01 -2.394465382e-04 7.195659860e-05 0.000000000e+00 0.000000000e+00 0.000000000e+00 0.000000000e+00
7.900000e+08 -9.859883676e-01 1.039668133e-01 -2.455305725e-04 7.387843690e-05 0.000000000e+00 0.000000000e+00 0.000000000e+00 0.000000000e+00
8.000000e+08 -9.857258007e-01 1.052023005e-01 -2.516917645e-04 7.584136683e-05 0.000000000e+00 0.000000000e+00 0.000000000e+00 0.000000000e+00
8.100000e+08 -9.854616946e-01 1.064375752e-01 -2.579298440e-04 7.784627928e-05 0.000000000e+00 0.000000000e+00 0.000000000e+00 0.000000000e+00
8.200000e+08 -9.851959950e-01 1.076726520e-01 -2.642445433e-04 7.989400553e-05 0.000000000e+00 0.000000000e+00 0.000000000e+00 0.000000000e+00
8.300000e+08 -9.849286514e-01 1.089075403e-01 -2.706355998e-04 8.198531719e-05 0.000000000e+00 0.000000000e+00 0.000000000e+00 0.000000000e+00
8.400000e+08 -9.846596172e-01 1.101422449e-01 -2.771027587e-04 8.412092638e-05 0.000000000e+00 0.000000000e+00 0.000000000e+00 0.000000000e+00
8.500000e+08 -9.843888499e-01 1.113767661e-01 -2.836457758e-04 8.630148621e-05 0.000000000e+00 0.000000000e+00 0.000000000e+00 0.000000000e+00
8.600000e+08 -9.841163111e-01 1.126111007e-01 -2.902644203e-04 8.852759150e-05 0.000000000e+00 0.000000000e+00 0.000000000e+00 0.000000000e+00
8.700000e+08 -9.838419668e-01 1.138452422e-01 -2.969584771e-04 9.079977979e-05 0.000000000e+00 0.000000000e+00 0.000000000e+00 0.000000000e+00
8.800000e+08 -9.835657873e-01 1.150791813e-01 -3.037277499e-04 9.311853252e-05 0.000000000e+00 0.000000000e+00 0.000000000e+00 0.000000000e+00
8.900000e+08 -9.832877474e-01 1.163129063e-01 -3.105720631e-04 9.548427652e-05 0.000000000e+00 0.000000000e+00 0.000000000e+00 0.000000000e+00
9.000000e+08 -9.830078260e-01 1.175464034e-01 -3.174912646e-04 9.789738567e-05 0.000000000e+00 0.000000000e+00 0.000000000e+00 0.000000000e+00
9.100000e+08 -9.827260065e-01 1.187796575e-01 -3.244852283e-04 1.003581827e-04 0.000000000e+00 0.000000000e+00 0.000000000e+00 0.000000000e+00
9.200000e+08 -9.824422765e-01 1.200126524e-01 -3.315538555e-04 1.028669414e-04 0.000000000e+00 0.000000000e+00 0.000000000e+00 0.000000000e+00
9.300000e+08 -9.821566276e-01 1.212453711e-01 -3.386970779e-04 1.054238887e-04 0.000000000e+00 0.000000000e+00 0.000000000e+00 0.000000000e+00
9.400000e+08 -9.818690557e-01 1.224777962e-01 -3.459148590e-04 1.080292069e-04 0.000000000e+00 0.000000000e+00 0.000000000e+00 0.000000000e+00
9.500000e+08 -9.815795602e-01 1.237099103e-01 -3.532071962e-04 1.106830365e-04 0.000000000e+00 0.000000000e+00 0.000000000e+00 0.000000000e+00
9.600000e+08 -9.812881445e-01 1.249416966e-01 -3.605741221e-04 1.133854787e-04 0.000000000e+00 0.000000000e+00 0.000000000e+00 0.000000000e+00
9.700000e+08 -9.809948156e-01 1.261731386e-01 -3.680157066e-04 1.161365981e-04 0.000000000e+00 0.000000000e+00 0.000000000e+00 0.000000000e+00
9.800000e+08 -9.806995835e-01 1.274042208e-01 -3.755320579e-04 1.189364257e-04 0.000000000e+00 0.000000000e+00 0.000000000e+00 0.000000000e+00
9.900000e+08 -9.804024616e-01 1.286349291e-01 -3.831233240e-04 1.217849614e-04 0.000000000e+00 0.000000000e+00 0.000000000e+00 0.000000000e+00
1.000000e+09 -9.801034661e-01 1.298652506e-01 -3.907896934e-04 1.246821778e-04 0.000000000e+00 0.000000000e+00 0.000000000e+00 0.000000000e+00
1.010000e+09 -9.798026161e-01 1.310951741e-01 -3.985313964e-04 1.276280225e-04 0.000000000e+00 0.000000000e+00 0.000000000e+00 0.000000000e+00
1.020000e+09 -9.794999328e-01 1.323246904e-01 -4.063487058e-04 1.306224213e-04 0.000000000e+00 0.000000000e+00 0.000000000e+00 0.000000000e+00
1.030000e+09 -9.791954400e-01 1.335537922e-01 -4.142419375e-04 1.336652819e-04 0.000000000e+00 0.000000000e+00 0.000000000e+00 0.000000000e+00
1.040000e+09 -9.788891631e-01 1.347824743e-01 -4.222114507e-04 1.367564963e-04 0.000000000e+00 0.000000000e+00 0.000000000e+00 0.000000000e+00
1.050000e+09 -9.785811297e-01 1.360107340e-01 -4.302576485e-04 1.398959443e-04 0.000000000e+00 0.000000000e+00 0.000000000e+00 0.000000000e+00
1.060000e+09 -9.782713683e-01 1.372385709e-01 -4.383809780e-04 1.430834966e-04 0.000000000e+00 0.000000000e+00 0.000000000e+00 0.000000000e+00
1.070000e+09 -9.779599092e-01 1.384659871e-01 -4.465819302e-04 1.463190178e-04 0.000000000e+00 0.000000000e+00 0.000000000e+00 0.000000000e+00
1.080000e+09 -9.776467833e-01 1.396929874e-01 -4.548610395e-04 1.496023694e-04 0.000000000e+00 0.000000000e+00 0.000000000e+00 0.000000000e+00
1.090000e+09 -9.773320223e-01 1.409195791e-01 -4.632188842e-04 1.529334131e-04 0.000000000e+00 0.000000000e+00 0.000000000e+00 0.000000000e+00
1.100000e+09 -9.770156588e-01 1.421457721e-01 -4.716560851e-04 1.563120132e-04 0.000000000e+00 0.000000000e+00 0.000000000e+00 0.000000000e+00
1.110000e+09 -9.766977251e-01 1.433715792e-01 -4.801733056e-04 1.597380398e-04 0.000000000e+00 0.000000000e+00 0.000000000e+00 0.000000000e+00
1.120000e+09 -9.763782539e-01 1.445970157e-01 -4.887712503e-04 1.632113716e-04 0.000000000e+00 0.000000000e+00 0.000000000e+00 0.000000000e+00
1.130000e+09 -9.760572778e-01 1.458220995e-01 -4.974506649e-04 1.667318984e-04 0.000000000e+00 0.000000000e+00 0.000000000e+00 0.000000000e+00
1.140000e+09 -9.757348289e-01 1.470468513e-01 -5.062123344e-04 1.702995238e-04 0.000000000e+00 0.000000000e+00 0.000000000e+00 0.000000000e+00
1.150000e+09 -9.754109388e-01 1.482712941e-01 -5.150570826e-04 1.739141675e-04 0.000000000e+00 0.000000000e+00 0.000000000e+00 0.000000000e+00
1.160000e+09 -9.750856383e-01 1.494954536e-01 -5.239857707e-04 1.775757678e-04 0.000000000e+00 0.000000000e+00 0.000000000e+00 0.000000000e+00
1.170000e+09 -9.747589574e-01 1.507193578e-01 -5.329992956e-04 1.812842839e-04 0.000000000e+00 0.000000000e+00 0.000000000e+00 0.000000000e+00
1.180000e+09 -9.744309248e-01 1.519430370e-01 -5.420985892e-04 1.850396975e-04 0.000000000e+00 0.000000000e+00 0.000000000e+00 0.000000000e+00
1.190000e+09 -9.741015682e-01 1.531665239e-01 -5.512846163e-04 1.888420154e-04 0.000000000e+00 0.000000000e+00 0.000000000e+00 0.000000000e+00
1.200000e+09 -9.737709138e-01 1.543898532e-01 -5.605583734e-04 1.926912708e-04 0.000000000e+00 0.000000000e+00 0.000000000e+00 0.000000000e+00
1.210000e+09 -9.734389864e-01 1.556130615e-01 -5.699208867e-04 1.965875250e-04 0.000000000e+00 0.000000000e+00 0.000000000e+00 0.000000000e+00
1.220000e+09 -9.731058090e-01 1.568361875e-01 -5.793732109e-04 2.005308692e-04 0.000000000e+00 0.000000000e+00 0.000000000e+00 0.000000000e+00
1.230000e+09 -9.727714031e-01 1.580592714e-01 -5.889164271e-04 2.045214256e-04 0.000000000e+00 0.000000000e+00 0.000000000e+00 0.000000000e+00
1.240000e+09 -9.724357881e-01 1.592823553e-01 -5.985516413e-04 2.085593485e-04 0.000000000e+00 0.000000000e+00 0.000000000e+00 0.000000000e+00
1.250000e+09 -9.720989819e-01 1.605054826e-01 -6.082799822e-04 2.126448254e-04 0.000000000e+00 0.000000000e+00 0.000000000e+00 0.000000000e+00
1.260000e+09 -9.717610002e-01 1.617286981e-01 -6.181026000e-04 2.167780780e-04 0.000000000e+00 0.000000000e+00 0.000000000e+00 0.000000000e+00
1.270000e+09 -9.714218567e-01 1.629520477e-01 -6.280206641e-04 2.209593628e-04 0.000000000e+00 0.000000000e+00 0.000000000e+00 0.000000000e+00
1.280000e+09 -9.710815632e-01 1.641755785e-01 -6.380353614e-04 2.251889714e-04 0.000000000e+00 0.000000000e+00 0.000000000e+00 0.000000000e+00
1.290000e+09 -9.707401294e-01 1.653993385e-01 -6.481478948e-04 2.294672311e-04 0.000000000e+00 0.000000000e+00 0.000000000e+00 0.000000000e+00
1.300000e+09 -9.703975628e-01 1.666233764e-01 -6.583594812e-04 2.337945053e-04 0.000000000e+00 0.000000000e+00 0.000000000e+00 0.000000000e+00
1.310000e+09 -9.700538691e-01 1.678477415e-01 -6.686713495e-04 2.381711930e-04 0.000000000e+00 0.000000000e+00 0.000000000e+00 0.000000000e+00
1.320000e+09 -9.697090518e-01 1.690724837e-01 -6.790847396e-04 2.425977292e-04 0.000000000e+00 0.000000000e+00 0.000000000e+00 0.000000000e+00
1.330000e+09 -9.693631124e-01 1.702976532e-01 -6.896009003e-04 2.470745843e-04 0.000000000e+00 0.000000000e+00 0.000000000e+00 0.000000000e+00
1.340000e+09 -9.690160503e-01 1.715233004e-01 -7.002210878e-04 2.516022641e-04 0.000000000e+00 0.000000000e+00 0.000000000e+00 0.000000000e+00
1.350000e+09 -9.686678632e-01 1.727494758e-01 -7.109465643e-04 2.561813087e-04 0.000000000e+00 0.000000000e+00 0.000000000e+00 0.000000000e+00
1.360000e+09 -9.683185468e-01 1.739762300e-01 -7.217785966e-04 2.608122922e-04 0.000000000e+00 0.000000000e+00 0.000000000e+00 0.000000000e+00
1.370000e+09 -9.679680950e-01 1.752036133e-01 -7.327184548e-04 2.654958219e-04 0.000000000e+00 0.000000000e+00 0.000000000e+00 0.000000000e+00
1.380000e+09 -9.676164999e-01 1.764316758e-01 -7.437674108e-04 2.702325371e-04 0.000000000e+00 0.000000000e+00 0.000000000e+00 0.000000000e+00
1.390000e+09 -9.672637519e-01 1.776604675e-01 -7.549267379e-04 2.750231081e-04 0.000000000e+00 0.000000000e+00 0.000000000e+00 0.000000000e+00
1.400000e+09 -9.669098401e-01 1.788900376e-01 -7.661977089e-04 2.798682354e-04 0.000000000e+00 0.000000000e+00 0.000000000e+00 0.000000000e+00
1.410000e+09 -9.665547519e-01 1.801204349e-01 -7.775815960e-04 2.847686477e-04 0.000000000e+00 0.000000000e+00 0.000000000e+00 0.000000000e+00
1.420000e+09 -9.661984734e-01 1.813517079e-01 -7.890796697e-04 2.897251012e-04 0.000000000e+00 0.000000000e+00 0.000000000e+00 0.000000000e+00
1.430000e+09 -9.658409894e-01 1.825839040e-01 -8.006931981e-04 2.947383779e-04 0.000000000e+00 0.000000000e+00 0.000000000e+00 0.000000000e+00
1.440000e+09 -9.654822837e-01 1.838170703e-01 -8.124234468e-04 2.998092837e-04 0.000000000e+00 0.000000000e+00 0.000000000e+00 0.000000000e+00
1.450000e+09 -9.651223390e-01 1.850512527e-01 -8.242716784e-04 3.049386474e-04 0.000000000e+00 0.000000000e+00 0.000000000e+00 0.000000000e+00
1.460000e+09 -9.647611370e-01 1.862864969e-01 -8.362391521e-04 3.101273185e-04 0.000000000e+00 0.000000000e+00 0.000000000e+00 0.000000000e+00
1.470000e+09 -9.643986589e-01 1.875228472e-01 -8.483271242e-04 3.153761658e-04 0.000000000e+00 0.000000000e+00 0.000000000e+00 0.000000000e+00
1.480000e+09 -9.640348849e-01 1.887603474e-01 -8.605368477e-04 3.206860755e-04 0.000000000e+00 0.000000000e+00 0.000000000e+00 0.000000000e+00
1.490000e+09 -9.636697951e-01 1.899990404e-01 -8.728695732e-04 3.260579492e-04 0.000000000e+00 0.000000000e+00 0.000000000e+00 0.000000000e+00
1.500000e+09 -9.633033689e-01 1.912389683e-01 -8.853265489e-04 3.314927027e-04 0.000000000e+00 0.000000000e+00 0.000000000e+00 0.000000000e+00
1.510000e+09 -9.629355856e-01 1.924801725e-01 -8.979090214e-04 3.369912633e-04 0.000000000e+00 0.000000000e+00 0.000000000e+00 0.000000000e+00
1.520000e+09 -9.625664242e-01 1.937226932e-01 -9.106182367e-04 3.425545688e-04 0.000000000e+00 0.000000000e+00 0.000000000e+00 0.000000000e+00
1.530000e+09 -9.621958640e-01 1.949665705e-01 -9.234554411e-04 3.481835650e-04 0.000000000e+00 0.000000000e+00 0.000000000e+00 0.000000000e+00
1.540000e+09 -9.618238841e-01 1.962118432e-01 -9.364218821e-04 3.538792045e-04 0.000000000e+00 0.000000000e+00 0.000000000e+00 0.000000000e+00
1.550000e+09 -9.614504640e-01 1.974585500e-01 -9.495188102e-04 3.596424445e-04 0.000000000e+00 0.000000000e+00 0.000000000e+00 0.000000000e+00
1.560000e+09 -9.610755837e-01 1.987067285e-01 -9.627474801e-04 3.654742455e-04 0.000000000e+00 0.000000000e+00 0.000000000e+00 0.000000000e+00
1.570000e+09 -9.606992233e-01 1.999564164e-01 -9.761091523e-04 3.713755691e-04 0.000000000e+00 0.000000000e+00 0.000000000e+00 0.000000000e+00
1.580000e+09 -9.603213638e-01 2.012076507e-01 -9.896050954e-04 3.773473770e-04 0.000000000e+00 0.000000000e+00 0.000000000e+00 0.000000000e+00
1.590000e+09 -9.599419867e-01 2.024604680e-01 -1.003236588e-03 3.833906293e-04 0.000000000e+00 0.000000000e+00 0.000000000e+00 0.000000000e+00
1.600000e+09 -9.595610744e-01 2.037149050e-01 -1.017004919e-03 3.895062829e-04 0.000000000e+00 0.000000000e+00 0.000000000e+00 0.000000000e+00
1.610000e+09 -9.591786101e-01 2.049709981e-01 -1.030911394e-03 3.956952906e-04 0.000000000e+00 0.000000000e+00 0.000000000e+00 0.000000000e+00
1.620000e+09 -9.587945778e-01 2.062287841e-01 -1.044957335e-03 4.019585995e-04 0.000000000e+00 0.000000000e+00 0.000000000e+00 0.000000000e+00
1.630000e+09 -9.584089626e-01 2.074882997e-01 -1.059144082e-03 4.082971502e-04 0.000000000e+00 0.000000000e+00 0.000000000e+00 0.000000000e+00
1.640000e+09 -9.580217508e-01 2.087495821e-01 -1.073472997e-03 4.147118761e-04 0.000000000e+00 0.000000000e+00 0.000000000e+00 0.000000000e+00
1.650000e+09 -9.576329295e-01 2.100126688e-01 -1.087945470e-03 4.212037021e-04 0.000000000e+00 0.000000000e+00 0.000000000e+00 0.000000000e+00
1.660000e+09 -9.572424873e-01 2.112775983e-01 -1.102562917e-03 4.277735444e-04 0.000000000e+00 0.000000000e+00 0.000000000e+00 0.000000000e+00
1.670000e+09 -9.568504136e-01 2.125444095e-01 -1.117326784e-03 4.344223100e-04 0.000000000e+00 0.000000000e+00 0.000000000e+00 0.000000000e+00
1.680000e+09 -9.564566993e-01 2.138131427e-01 -1.132238555e-03 4.411508965e-04 0.000000000e+00 0.000000000e+00 0.000000000e+00 0.000000000e+00
1.690000e+09 -9.560613363e-01 2.150838389e-01 -1.147299749e-03 4.479601917e-04 0.000000000e+00 0.000000000e+00 0.000000000e+00 0.000000000e+00
1.700000e+09 -9.556643178e-01 2.163565409e-01 -1.162511928e-03 4.548510741e-04 0.000000000e+00 0.000000000e+00 0.000000000e+00 0.000000000e+00
1.710000e+09 -9.552656382e-01 2.176312925e-01 -1.177876698e-03 4.618244133e-04 0.000000000e+00 0.000000000e+00 0.000000000e+00 0.000000000e+00
1.720000e+09 -9.548652929e-01 2.189081396e-01 -1.193395715e-03 4.688810702e-04 0.000000000e+00 0.000000000e+00 0.000000000e+00 0.000000000e+00
1.730000e+09 -9.544632784e-01 2.201871298e-01 -1.209070687e-03 4.760218979e-04 0.000000000e+00 0.000000000e+00 0.000000000e+00 0.000000000e+00
1.740000e+09 -9.540595925e-01 2.214683126e-01 -1.224903377e-03 4.832477428e-04 0.000000000e+00 0.000000000e+00 0.000000000e+00 0.000000000e+00
1.750000e+09 -9.536542336e-01 2.227517400e-01 -1.240895608e-03 4.905594460e-04 0.000000000e+00 0.000000000e+00 0.000000000e+00 0.000000000e+00
1.760000e+09 -9.532472013e-01 2.240374661e-01 -1.257049268e-03 4.979578444e-04 0.000000000e+00 0.000000000e+00 0.000000000e+00 0.000000000e+00
1.770000e+09 -9.528384957e-01 2.253255480e-01 -1.273366311e-03 5.054437727e-04 0.000000000e+00 0.000000000e+00 0.000000000e+00 0.000000000e+00
1.780000e+09 -9.524281177e-01 2.266160452e-01 -1.289848764e-03 5.130180653e-04 0.000000000e+00 0.000000000e+00 0.000000000e+00 0.000000000e+00
1.790000e+09 -9.520160689e-01 2.279090203e-01 -1.306498727e-03 5.206815586e-04 0.000000000e+00 0.000000000e+00 0.000000000e+00 0.000000000e+00
1.800000e+09 -9.516023509e-01 2.292045389e-01 -1.323318382e-03 5.284350934e-04 0.000000000e+00 0.000000000e+00 0.000000000e+00 0.000000000e+00
1.810000e+09 -9.511869660e-01 2.305026701e-01 -1.340309991e-03 5.362795179e-04 0.000000000e+00 0.000000000e+00 0.000000000e+00 0.000000000e+00
1.820000e+09 -9.507699162e-01 2.318034863e-01 -1.357475903e-03 5.442156905e-04 0.000000000e+00 0.000000000e+00 0.000000000e+00 0.000000000e+00
1.830000e+09 -9.503512037e-01 2.331070636e-01 -1.374818557e-03 5.522444833e-04 0.000000000e+00 0.000000000e+00 0.000000000e+00 0.000000000e+00
1.840000e+09 -9.499308300e-01 2.344134816e-01 -1.392340488e-03 5.603667854e-04 0.000000000e+00 0.000000000e+00 0.000000000e+00 0.000000000e+00
1.850000e+09 -9.495087965e-01 2.357228241e-01 -1.410044325e-03 5.685835071e-04 0.000000000e+00 0.000000000e+00 0.000000000e+00 0.000000000e+00
1.860000e+09 -9.490851036e-01 2.370351788e-01 -1.427932799e-03 5.768955841e-04 0.000000000e+00 0.000000000e+00 0.000000000e+00 0.000000000e+00
1.870000e+09 -9.486597507e-01 2.383506375e-01 -1.446008743e-03 5.853039812e-04 0.000000000e+00 0.000000000e+00 0.000000000e+00 0.000000000e+00
1.880000e+09 -9.482327363e-01 2.396692962e-01 -1.464275099e-03 5.938096979e-04 0.000000000e+00 0.000000000e+00 0.000000000e+00 0.000000000e+00
1.890000e+09 -9.478040569e-01 2.409912555e-01 -1.482734916e-03 6.024137726e-04 0.000000000e+00 0.000000000e+00 0.000000000e+00 0.000000000e+00
1.900000e+09 -9.473737076e-01 2.423166202e-01 -1.501391358e-03 6.111172882e-04 0.000000000e+00 0.000000000e+00 0.000000000e+00 0.000000000e+00
1.910000e+09 -9.469416814e-01 2.436454998e-01 -1.520247700e-03 6.199213772e-04 0.000000000e+00 0.000000000e+00 0.000000000e+00 0.000000000e+00
1.920000e+09 -9.465079689e-01 2.449780081e-01 -1.539307336e-03 6.288272278e-04 0.000000000e+00 0.000000000e+00 0.000000000e+00 0.000000000e+00
1.930000e+09 -9.460725579e-01 2.463142637e-01 -1.558573781e-03 6.378360896e-04 0.000000000e+00 0.000000000e+00 0.000000000e+00 0.000000000e+00
1.940000e+09 -9.456354336e-01 2.476543899e-01 -1.578050666e-03 6.469492798e-04 0.000000000e+00 0.000000000e+00 0.000000000e+00 0.000000000e+00
1.950000e+09 -9.451965776e-01 2.489985146e-01 -1.597741748e-03 6.561681893e-04 0.000000000e+00 0.000000000e+00 0.000000000e+00 0.000000000e+00
1.960000e+09 -9.447559679e-01 2.503467703e-01 -1.617650906e-03 6.654942902e-04 0.000000000e+00 0.000000000e+00 0.000000000e+00 0.000000000e+00
1.970000e+09 -9.443135787e-01 2.516992941e-01 -1.637782145e-03 6.749291415e-04 0.000000000e+00 0.000000000e+00 0.000000000e+00 0.000000000e+00
1.980000e+09 -9.438693797e-01 2.530562278e-01 -1.658139592e-03 6.844743969e-04 0.000000000e+00 0.000000000e+00 0.000000000e+00 0.000000000e+00
1.990000e+09 -9.434233362e-01 2.544177176e-01 -1.678727502e-03 6.941318117e-04 0.000000000e+00 0.000000000e+00 0.000000000e+00 0.000000000e+00
2.000000e+09 -9.429754081e-01 2.557839144e-01 -1.699550254e-03 7.039032502e-04 0.000000000e+00 0.000000000e+00 0.000000000e+00 0.000000000e+00
2.010000e+09 -9.425255504e-01 2.571549731e-01 -1.720612353e-03 7.137906934e-04 0.000000000e+00 0.000000000e+00 0.000000000e+00 0.000000000e+00
2.020000e+09 -9.420737118e-01 2.585310529e-01 -1.741918427e-03 7.237962464e-04 0.000000000e+00 0.000000000e+00 0.000000000e+00 0.000000000e+00
2.030000e+09 -9.416198354e-01 2.599123174e-01 -1.763473228e-03 7.339221463e-04 0.000000000e+00 0.000000000e+00 0.000000000e+00 0.000000000e+00
2.040000e+09 -9.411638576e-01 2.612989338e-01 -1.785281629e-03 7.441707700e-04 0.000000000e+00 0.000000000e+00 0.000000000e+00 0.000000000e+00
2.050000e+09 -9.407057080e-01 2.626910729e-01 -1.807348621e-03 7.545446427e-04 0.000000000e+00 0.000000000e+00 0.000000000e+00 0.000000000e+00
2.060000e+09 -9.402453089e-01 2.640889094e-01 -1.829679313e-03 7.650464450e-04 0.000000000e+00 0.000000000e+00 0.000000000e+00 0.000000000e+00
2.070000e+09 -9.397825751e-01 2.654926211e-01 -1.852278930e-03 7.756790220e-04 0.000000000e+00 0.000000000e+00 0.000000000e+00 0.000000000e+00
2.080000e+09 -9.393174138e-01 2.669023887e-01 -1.875152805e-03 7.864453907e-04 0.000000000e+00 0.000000000e+00 0.000000000e+00 0.000000000e+00
2.090000e+09 -9.388497234e-01 2.683183958e-01 -1.898306380e-03 7.973487485e-04 0.000000000e+00 0.000000000e+00 0.000000000e+00 0.000000000e+00
2.100000e+09 -9.383793940e-01 2.697408284e-01 -1.921745199e-03 8.083924811e-04 0.000000000e+00 0.000000000e+00 0.000000000e+00 0.000000000e+00
2.110000e+09 -9.379063069e-01 2.711698746e-01 -1.945474904e-03 8.195801710e-04 0.000000000e+00 0.000000000e+00 0.000000000e+00 0.000000000e+00
2.120000e+09 -9.374303338e-01 2.726057241e-01 -1.969501232e-03 8.309156049e-04 0.000000000e+00 0.000000000e+00 0.000000000e+00 0.000000000e+00
2.130000e+09 -9.369513371e-01 2.740485683e-01 -1.993830005e-03 8.424027820e-04 0.000000000e+00 0.000000000e+00 0.000000000e+00 0.000000000e+00
2.140000e+09 -9.364691692e-01 2.754985994e-01 -2.018467129e-03 8.540459216e-04 0.000000000e+00 0.000000000e+00 0.000000000e+00 0.000000000e+00
2.150000e+09 -9.359836724e-01 2.769560101e-01 -2.043418582e-03 8.658494711e-04 0.000000000e+00 0.000000000e+00 0.000000000e+00 0.000000000e+00
2.160000e+09 -9.354946785e-01 2.784209932e-01 -2.068690412e-03 8.778181130e-04 0.000000000e+00 0.000000000e+00 0.000000000e+00 0.000000000e+00
2.170000e+09 -9.350020088e-01 2.798937414e-01 -2.094288726e-03 8.899567723e-04 0.000000000e+00 0.000000000e+00 0.000000000e+00 0.000000000e+00
2.180000e+09 -9.345054736e-01 2.813744462e-01 -2.120219685e-03 9.022706240e-04 0.000000000e+00 0.000000000e+00 0.000000000e+00 0.000000000e+00
2.190000e+09 -9.340048718e-01 2.828632980e-01 -2.146489492e-03 9.147650991e-04 0.000000000e+00 0.000000000e+00 0.000000000e+00 0.000000000e+00
2.200000e+09 -9.334999916e-01 2.843604853e-01 -2.173104385e-03 9.274458917e-04 0.000000000e+00 0.000000000e+00 0.000000000e+00 0.000000000e+00
2.210000e+09 -9.329906091e-01 2.858661939e-01 -2.200070628e-03 9.403189649e-04 0.000000000e+00 0.000000000e+00 0.000000000e+00 0.000000000e+00
2.220000e+09 -9.324764891e-01 2.873806068e-01 -2.227394499e-03 9.533905566e-04 0.000000000e+00 0.000000000e+00 0.000000000e+00 0.000000000e+00
2.230000e+09 -9.319573848e-01 2.889039035e-01 -2.255082283e-03 9.666671850e-04 0.000000000e+00 0.000000000e+00 0.000000000e+00 0.000000000e+00
2.240000e+09 -9.314330372e-01 2.904362590e-01 -2.283140259e-03 9.801556537e-04 0.000000000e+00 0.000000000e+00 0.000000000e+00 0.000000000e+00
2.250000e+09 -9.309031758e-01 2.919778436e-01 -2.311574687e-03 9.938630561e-04 0.000000000e+00 0.000000000e+00 0.000000000e+00 0.000000000e+00
2.260000e+09 -9.303675179e-01 2.935288222e-01 -2.340391801e-03 1.007796779e-03 0.000000000e+00 0.000000000e+00 0.000000000e+00 0.000000000e+00
2.270000e+09 -9.298257691e-01 2.950893535e-01 -2.369597795e-03 1.021964509e-03 0.000000000e+00 0.000000000e+00 0.000000000e+00 0.000000000e+00
2.280000e+09 -9.292776231e-01 2.966595893e-01 -2.399198809e-03 1.036374229e-03 0.000000000e+00 0.000000000e+00 0.000000000e+00 0.000000000e+00
2.290000e+09 -9.287227619e-01 2.982396741e-01 -2.429200917e-03 1.051034230e-03 0.000000000e+00 0.000000000e+00 0.000000000e+00 0.000000000e+00
2.300000e+09 -9.281608557e-01 2.998297442e-01 -2.459610116e-03 1.065953104e-03 0.000000000e+00 0.000000000e+00 0.000000000e+00 0.000000000e+00
2.310000e+09 -9.275915633e-01 3.014299270e-01 -2.490432314e-03 1.081139751e-03 0.000000000e+00 0.000000000e+00 0.000000000e+00 0.000000000e+00
2.320000e+09 -9.270145323e-01 3.030403405e-01 -2.521673310e-03 1.096603377e-03 0.000000000e+00 0.000000000e+00 0.000000000e+00 0.000000000e+00
2.330000e+09 -9.264293989e-01 3.046610923e-01 -2.553338787e-03 1.112353496e-03 0.000000000e+00 0.000000000e+00 0.000000000e+00 0.000000000e+00
2.340000e+09 -9.258357889e-01 3.062922791e-01 -2.585434296e-03 1.128399926e-03 0.000000000e+00 0.000000000e+00 0.000000000e+00 0.000000000e+00
2.350000e+09 -9.252333175e-01 3.079339863e-01 -2.617965240e-03 1.144752791e-03 0.000000000e+00 0.000000000e+00 0.000000000e+00 0.000000000e+00
2.360000e+09 -9.246215895e-01 3.095862864e-01 -2.650936864e-03 1.161422517e-03 0.000000000e+00 0.000000000e+00 0.000000000e+00 0.000000000e+00
2.370000e+09 -9.240002005e-01 3.112492394e-01 -2.684354238e-03 1.178419828e-03 0.000000000e+00 0.000000000e+00 0.000000000e+00 0.000000000e+00
2.380000e+09 -9.233687364e-01 3.129228914e-01 -2.718222243e-03 1.195755743e-03 0.000000000e+00 0.000000000e+00 0.000000000e+00 0.000000000e+00
2.390000e+09 -9.227267747e-01 3.146072743e-01 -2.752545557e-03 1.213441574e-03 0.000000000e+00 0.000000000e+00 0.000000000e+00 0.000000000e+00
2.400000e+09 -9.220738845e-01 3.163024047e-01 -2.787328644e-03 1.231488913e-03 0.000000000e+00 0.000000000e+00 0.000000000e+00 0.000000000e+00
2.410000e+09 -9.214096272e-01 3.180082839e-01 -2.822575736e-03 1.249909636e-03 0.000000000e+00 0.000000000e+00 0.000000000e+00 0.000000000e+00
2.420000e+09 -9.207335575e-01 3.197248968e-01 -2.858290821e-03 1.268715887e-03 0.000000000e+00 0.000000000e+00 0.000000000e+00 0.000000000e+00
2.430000e+09 -9.200452236e-01 3.214522116e-01 -2.894477631e-03 1.287920074e-03 0.000000000e+00 0.000000000e+00 0.000000000e+00 0.000000000e+00
2.440000e+09 -9.193441683e-01 3.231901790e-01 -2.931139627e-03 1.307534859e-03 0.000000000e+00 0.000000000e+00 0.000000000e+00 0.000000000e+00
2.450000e+09 -9.186299295e-01 3.249387318e-01 -2.968279987e-03 1.327573149e-03 0.000000000e+00 0.000000000e+00 0.000000000e+00 0.000000000e+00
2.460000e+09 -9.179020411e-01 3.266977844e-01 -3.005901595e-03 1.348048083e-03 0.000000000e+00 0.000000000e+00 0.000000000e+00 0.000000000e+00
2.470000e+09 -9.171600341e-01 3.284672324e-01 -3.044007028e-03 1.368973025e-03 0.000000000e+00 0.000000000e+00 0.000000000e+00 0.000000000e+00
2.480000e+09 -9.164034372e-01 3.302469521e-01 -3.082598544e-03 1.390361544e-03 0.000000000e+00 0.000000000e+00 0.000000000e+00 0.000000000e+00
2.490000e+09 -9.156317780e-01 3.320367999e-01 -3.121678075e-03 1.412227409e-03 0.000000000e+00 0.000000000e+00 0.000000000e+00 0.000000000e+00
2.500000e+09 -9.148445836e-01 3.338366125e-01 -3.161247213e-03 1.434584569e-03 0.000000000e+00 0.000000000e+00 0.000000000e+00 0.000000000e+00
2.510000e+09 -9.140413823e-01 3.356462061e-01 -3.201307204e-03 1.457447140e-03 0.000000000e+00 0.000000000e+00 0.000000000e+00 0.000000000e+00
2.520000e+09 -9.132217041e-01 3.374653766e-01 -3.241858939e-03 1.480829388e-03 0.000000000e+00 0.000000000e+00 0.000000000e+00 0.000000000e+00
2.530000e+09 -9.123850820e-01 3.392938989e-01 -3.282902946e-03 1.504745715e-03 0.000000000e+00 0.000000000e+00 0.000000000e+00 0.000000000e+00
2.540000e+09 -9.115310532e-01 3.411315274e-01 -3.324439386e-03 1.529210638e-03 0.000000000e+00 0.000000000e+00 0.000000000e+00 0.000000000e+00
2.550000e+09 -9.106591602e-01 3.429779956e-01 -3.366468047e-03 1.554238773e-03 0.000000000e+00 0.000000000e+00 0.000000000e+00 0.000000000e+00
2.560000e+09 -9.097689521e-01 3.448330162e-01 -3.408988337e-03 1.579844818e-03 0.000000000e+00 0.000000000e+00 0.000000000e+00 0.000000000e+00
2.570000e+09 -9.088599857e-01 3.466962810e-01 -3.451999286e-03 1.606043529e-03 0.000000000e+00 0.000000000e+00 0.000000000e+00 0.000000000e+00
2.580000e+09 -9.079318268e-01 3.485674616e-01 -3.495499544e-03 1.632849704e-03 0.000000000e+00 0.000000000e+00 0.000000000e+00 0.000000000e+00
2.590000e+09 -9.069840517e-01 3.504462089e-01 -3.539487377e-03 1.660278158e-03 0.000000000e+00 0.000000000e+00 0.000000000e+00 0.000000000e+00
2.600000e+09 -9.060162480e-01 3.523321541e-01 -3.583960672e-03 1.688343709e-03 0.000000000e+00 0.000000000e+00 0.000000000e+00 0.000000000e+00
2.610000e+09 -9.050280163e-01 3.542249089e-01 -3.628916942e-03 1.717061151e-03 0.000000000e+00 0.000000000e+00 0.000000000e+00 0.000000000e+00
2.620000e+09 -9.040189716e-01 3.561240656e-01 -3.674353323e-03 1.746445232e-03 0.000000000e+00 0.000000000e+00 0.000000000e+00 0.000000000e+00
2.630000e+09 -9.029887439e-01 3.580291982e-01 -3.720266589e-03 1.776510636e-03 0.000000000e+00 0.000000000e+00 0.000000000e+00 0.000000000e+00
2.640000e+09 -9.019369804e-01 3.599398631e-01 -3.766653154e-03 1.807271958e-03 0.000000000e+00 0.000000000e+00 0.000000000e+00 0.000000000e+00
2.650000e+09 -9.008633463e-01 3.618555993e-01 -3.813509084e-03 1.838743683e-03 0.000000000e+00 0.000000000e+00 0.000000000e+00 0.000000000e+00
2.660000e+09 -8.997675259e-01 3.637759297e-01 -3.860830108e-03 1.870940165e-03 0.000000000e+00 0.000000000e+00 0.000000000e+00 0.000000000e+00
2.670000e+09 -8.986492245e-01 3.657003621e-01 -3.908611634e-03 1.903875599e-03 0.000000000e+00 0.000000000e+00 0.000000000e+00 0.000000000e+00
2.680000e+09 -8.975081688e-01 3.676283901e-01 -3.956848758e-03 1.937564009e-03 0.000000000e+00 0.000000000e+00 0.000000000e+00 0.000000000e+00
2.690000e+09 -8.963441090e-01 3.695594940e-01 -4.005536290e-03 1.972019219e-03 0.000000000e+00 0.000000000e+00 0.000000000e+00 0.000000000e+00
2.700000e+09 -8.951568190e-01 3.714931428e-01 -4.054668766e-03 2.007254832e-03 0.000000000e+00 0.000000000e+00 0.000000000e+00 0.000000000e+00
2.710000e+09 -8.939460983e-01 3.734287946e-01 -4.104240474e-03 2.043284217e-03 0.000000000e+00 0.000000000e+00 0.000000000e+00 0.000000000e+00
2.720000e+09 -8.927117727e-01 3.753658987e-01 -4.154245474e-03 2.080120481e-03 0.000000000e+00 0.000000000e+00 0.000000000e+00 0.000000000e+00
2.730000e+09 -8.914536952e-01 3.773038971e-01 -4.204677628e-03 2.117776454e-03 0.000000000e+00 0.000000000e+00 0.000000000e+00 0.000000000e+00
2.740000e+09 -8.901717474e-01 3.792422258e-01 -4.255530623e-03 2.156264671e-03 0.000000000e+00 0.000000000e+00 0.000000000e+00 0.000000000e+00
2.750000e+09 -8.888658395e-01 3.811803169e-01 -4.306798006e-03 2.195597356e-03 0.000000000e+00 0.000000000e+00 0.000000000e+00 0.000000000e+00
2.760000e+09 -8.875359121e-01 3.831176000e-01 -4.358473209e-03 2.235786403e-03 0.000000000e+00 0.000000000e+00 0.000000000e+00 0.000000000e+00
2.770000e+09 -8.861819360e-01 3.850535047e-01 -4.410549591e-03 2.276843368e-03 0.000000000e+00 0.000000000e+00 0.000000000e+00 0.000000000e+00
2.780000e+09 -8.848039133e-01 3.869874621e-01 -4.463020469e-03 2.318779450e-03 0.000000000e+00 0.000000000e+00 0.000000000e+00 0.000000000e+00
2.790000e+09 -8.834018776e-01 3.889189071e-01 -4.515879156e-03 2.361605486e-03 0.000000000e+00 0.000000000e+00 0.000000000e+00 0.000000000e+00
2.800000e+09 -8.819758945e-01 3.908472807e-01 -4.569119004e-03 2.405331938e-03 0.000000000e+00 0.000000000e+00 0.000000000e+00 0.000000000e+00
2.810000e+09 -8.805260619e-01 3.927720320e-01 -4.622733444e-03 2.449968889e-03 0.000000000e+00 0.000000000e+00 0.000000000e+00 0.000000000e+00
2.820000e+09 -8.790525098e-01 3.946926204e-01 -4.676716030e-03 2.495526036e-03 0.000000000e+00 0.000000000e+00 0.000000000e+00 0.000000000e+00
2.830000e+09 -8.775554005e-01 3.966085186e-01 -4.731060486e-03 2.542012689e-03 0.000000000e+00 0.000000000e+00 0.000000000e+00 0.000000000e+00
2.840000e+09 -8.760349282e-01 3.985192143e-01 -4.785760752e-03 2.589437773e-03 0.000000000e+00 0.000000000e+00 0.000000000e+00 0.000000000e+00
2.850000e+09 -8.744913192e-01 4.004242131e-01 -4.840811031e-03 2.637809827e-03 0.000000000e+00 0.000000000e+00 0.000000000e+00 0.000000000e+00
2.860000e+09 -8.729248305e-01 4.023230409e-01 -4.896205846e-03 2.687137013e-03 0.000000000e+00 0.000000000e+00 0.000000000e+00 0.000000000e+00
2.870000e+09 -8.713357499e-01 4.042152465e-01 -4.951940084e-03 2.737427123e-03 0.000000000e+00 0.000000000e+00 0.000000000e+00 0.000000000e+00
2.880000e+09 -8.697243949e-01 4.061004040e-01 -5.008009053e-03 2.788687594e-03 0.000000000e+00 0.000000000e+00 0.000000000e+00 0.000000000e+00
2.890000e+09 -8.680911115e-01 4.079781157e-01 -5.064408535e-03 2.840925516e-03 0.000000000e+00 0.000000000e+00 0.000000000e+00 0.000000000e+00
2.900000e+09 -8.664362730e-01 4.098480144e-01 -5.121134841e-03 2.894147661e-03 0.000000000e+00 0.000000000e+00 0.000000000e+00 0.000000000e+00
2.910000e+09 -8.647602788e-01 4.117097658e-01 -5.178184865e-03 2.948360494e-03 0.000000000e+00 0.000000000e+00 0.000000000e+00 0.000000000e+00
2.920000e+09 -8.630635528e-01 4.135630717e-01 -5.235556141e-03 3.003570207e-03 0.000000000e+00 0.000000000e+00 0.000000000e+00 0.000000000e+00
2.930000e+09 -8.613465412e-01 4.154076717e-01 -5.293246897e-03 3.059782746e-03 0.000000000e+00 0.000000000e+00 0.000000000e+00 0.000000000e+00
2.940000e+09 -8.596097108e-01 4.172433463e-01 -5.351256115e-03 3.117003842e-03 0.000000000e+00 0.000000000e+00 0.000000000e+00 0.000000000e+00
2.950000e+09 -8.578535465e-01 4.190699187e-01 -5.409583580e-03 3.175239053e-03 0.000000000e+00 0.000000000e+00 0.000000000e+00 0.000000000e+00
2.960000e+09 -8.560785493e-01 4.208872575e-01 -5.468229941e-03 3.234493801e-03 0.000000000e+00 0.000000000e+00 0.000000000e+00 0.000000000e+00
2.970000e+09 -8.542852329e-01 4.226952788e-01 -5.527196760e-03 3.294773422e-03 0.000000000e+00 0.000000000e+00 0.000000000e+00 0.000000000e+00
2.980000e+09 -8.524741216e-01 4.244939480e-01 -5.586486568e-03 3.356083211e-03 0.000000000e+00 0.000000000e+00 0.000000000e+00 0.000000000e+00
2.990000e+09 -8.506457466e-01 4.262832822e-01 -5.646102914e-03 3.418428480e-03 0.000000000e+00 0.000000000e+00 0.000000000e+00 0.000000000e+00
3.000000e+09 -8.488006429e-01 4.280633514e-01 -5.706050416e-03 3.481814617e-03 0.000000000e+00 0.000000000e+00 0.000000000e+00 0.000000000e+00
