! rfsim (KiCad + openEMS)
# HZ S RI R 50
5.000000e+08 -2.793701852e-01 -1.088946752e-03 -8.858537313e+00 -3.757872379e-01 0.000000000e+00 0.000000000e+00 0.000000000e+00 0.000000000e+00
5.100000e+08 -2.793675417e-01 -1.110630149e-03 -8.857634960e+00 -3.832703992e-01 0.000000000e+00 0.000000000e+00 0.000000000e+00 0.000000000e+00
5.200000e+08 -2.793648460e-01 -1.132307871e-03 -8.856714790e+00 -3.907516245e-01 0.000000000e+00 0.000000000e+00 0.000000000e+00 0.000000000e+00
5.300000e+08 -2.793620981e-01 -1.153979806e-03 -8.855776805e+00 -3.982308759e-01 0.000000000e+00 0.000000000e+00 0.000000000e+00 0.000000000e+00
5.400000e+08 -2.793592980e-01 -1.175645842e-03 -8.854821008e+00 -4.057081154e-01 0.000000000e+00 0.000000000e+00 0.000000000e+00 0.000000000e+00
5.500000e+08 -2.793564458e-01 -1.197305868e-03 -8.853847403e+00 -4.131833050e-01 0.000000000e+00 0.000000000e+00 0.000000000e+00 0.000000000e+00
5.600000e+08 -2.793535414e-01 -1.218959774e-03 -8.852855993e+00 -4.206564067e-01 0.000000000e+00 0.000000000e+00 0.000000000e+00 0.000000000e+00
5.700000e+08 -2.793505849e-01 -1.240607447e-03 -8.851846781e+00 -4.281273826e-01 0.000000000e+00 0.000000000e+00 0.000000000e+00 0.000000000e+00
5.800000e+08 -2.793475762e-01 -1.262248777e-03 -8.850819769e+00 -4.355961946e-01 0.000000000e+00 0.000000000e+00 0.000000000e+00 0.000000000e+00
5.900000e+08 -2.793445154e-01 -1.283883652e-03 -8.849774962e+00 -4.430628047e-01 0.000000000e+00 0.000000000e+00 0.000000000e+00 0.000000000e+00
6.000000e+08 -2.793414025e-01 -1.305511960e-03 -8.848712363e+00 -4.505271750e-01 0.000000000e+00 0.000000000e+00 0.000000000e+00 0.000000000e+00
6.100000e+08 -2.793382375e-01 -1.327133591e-03 -8.847631976e+00 -4.579892674e-01 0.000000000e+00 0.000000000e+00 0.000000000e+00 0.000000000e+00
6.200000e+08 -2.793350204e-01 -1.348748433e-03 -8.846533803e+00 -4.654490439e-01 0.000000000e+00 0.000000000e+00 0.000000000e+00 0.000000000e+00
6.300000e+08 -2.793317511e-01 -1.370356375e-03 -8.845417849e+00 -4.729064666e-01 0.000000000e+00 0.000000000e+00 0.000000000e+00 0.000000000e+00
6.400000e+08 -2.793284298e-01 -1.391957305e-03 -8.844284116e+00 -4.803614974e-01 0.000000000e+00 0.000000000e+00 0.000000000e+00 0.000000000e+00
6.500000e+08 -2.793250565e-01 -1.413551112e-03 -8.843132610e+00 -4.878140983e-01 0.000000000e+00 0.000000000e+00 0.000000000e+00 0.000000000e+00
6.600000e+08 -2.793216311e-01 -1.435137685e-03 -8.841963333e+00 -4.952642314e-01 0.000000000e+00 0.000000000e+00 0.000000000e+00 0.000000000e+00
6.700000e+08 -2.793181536e-01 -1.456716913e-03 -8.840776290e+00 -5.027118586e-01 0.000000000e+00 0.000000000e+00 0.000000000e+00 0.000000000e+00
6.800000e+08 -2.793146241e-01 -1.478288683e-03 -8.839571483e+00 -5.101569418e-01 0.000000000e+00 0.000000000e+00 0.000000000e+00 0.000000000e+00
6.900000e+08 -2.793110426e-01 -1.499852886e-03 -8.838348918e+00 -5.175994432e-01 0.000000000e+00 0.000000000e+00 0.000000000e+00 0.000000000e+00
7.000000e+08 -2.793074091e-01 -1.521409409e-03 -8.837108598e+00 -5.250393246e-01 0.000000000e+00 0.000000000e+00 0.000000000e+00 0.000000000e+00
7.100000e+08 -2.793037236e-01 -1.542958140e-03 -8.835850528e+00 -5.324765480e-01 0.000000000e+00 0.000000000e+00 0.000000000e+00 0.000000000e+00
7.200000e+08 -2.792999861e-01 -1.564498970e-03 -8.834574710e+00 -5.399110755e-01 0.000000000e+00 0.000000000e+00 0.000000000e+00 0.000000000e+00
7.300000e+08 -2.792961966e-01 -1.586031786e-03 -8.833281150e+00 -5.473428690e-01 0.000000000e+00 0.000000000e+00 0.000000000e+00 0.000000000e+00
7.400000e+08 -2.792923552e-01 -1.607556477e-03 -8.831969852e+00 -5.547718905e-01 0.000000000e+00 0.000000000e+00 0.000000000e+00 0.000000000e+00
7.500000e+08 -2.792884618e-01 -1.629072932e-03 -8.830640820e+00 -5.621981020e-01 0.000000000e+00 0.000000000e+00 0.000000000e+00 0.000000000e+00
7.600000e+08 -2.792845165e-01 -1.650581039e-03 -8.829294059e+00 -5.696214654e-01 0.000000000e+00 0.000000000e+00 0.000000000e+00 0.000000000e+00
7.700000e+08 -2.792805193e-01 -1.672080687e-03 -8.827929572e+00 -5.770419427e-01 0.000000000e+00 0.000000000e+00 0.000000000e+00 0.000000000e+00
7.800000e+08 -2.792764701e-01 -1.693571765e-03 -8.826547364e+00 -5.844594959e-01 0.000000000e+00 0.000000000e+00 0.000000000e+00 0.000000000e+00
7.900000e+08 -2.792723691e-01 -1.715054161e-03 -8.825147440e+00 -5.918740869e-01 0.000000000e+00 0.000000000e+00 0.000000000e+00 0.000000000e+00
8.000000e+08 -2.792682162e-01 -1.736527764e-03 -8.823729805e+00 -5.992856777e-01 0.000000000e+00 0.000000000e+00 0.000000000e+00 0.000000000e+00
8.100000e+08 -2.792640114e-01 -1.757992463e-03 -8.822294462e+00 -6.066942303e-01 0.000000000e+00 0.000000000e+00 0.000000000e+00 0.000000000e+00
8.200000e+08 -2.792597548e-01 -1.779448145e-03 -8.820841418e+00 -6.140997066e-01 0.000000000e+00 0.000000000e+00 0.000000000e+00 0.000000000e+00
8.300000e+08 -2.792554463e-01 -1.800894701e-03 -8.819370676e+00 -6.215020686e-01 0.000000000e+00 0.000000000e+00 0.000000000e+00 0.000000000e+00
8.400000e+08 -2.792510860e-01 -1.822332018e-03 -8.817882241e+00 -6.289012783e-01 0.000000000e+00 0.000000000e+00 0.000000000e+00 0.000000000e+00
8.500000e+08 -2.792466739e-01 -1.843759985e-03 -8.816376118e+00 -6.362972975e-01 0.000000000e+00 0.000000000e+00 0.000000000e+00 0.000000000e+00
8.600000e+08 -2.792422100e-01 -1.865178491e-03 -8.814852313e+00 -6.436900883e-01 0.000000000e+00 0.000000000e+00 0.000000000e+00 0.000000000e+00
8.700000e+08 -2.792376943e-01 -1.886587424e-03 -8.813310830e+00 -6.510796126e-01 0.000000000e+00 0.000000000e+00 0.000000000e+00 0.000000000e+00
8.800000e+08 -2.792331269e-01 -1.907986673e-03 -8.811751674e+00 -6.584658324e-01 0.000000000e+00 0.000000000e+00 0.000000000e+00 0.000000000e+00
8.900000e+08 -2.792285077e-01 -1.929376126e-03 -8.810174851e+00 -6.658487095e-01 0.000000000e+00 0.000000000e+00 0.000000000e+00 0.000000000e+00
9.000000e+08 -2.792238368e-01 -1.950755673e-03 -8.808580365e+00 -6.732282059e-01 0.000000000e+00 0.000000000e+00 0.000000000e+00 0.000000000e+00
9.100000e+08 -2.792191141e-01 -1.972125202e-03 -8.806968222e+00 -6.806042837e-01 0.000000000e+00 0.000000000e+00 0.000000000e+00 0.000000000e+00
9.200000e+08 -2.792143398e-01 -1.993484601e-03 -8.805338428e+00 -6.879769046e-01 0.000000000e+00 0.000000000e+00 0.000000000e+00 0.000000000e+00
9.300000e+08 -2.792095137e-01 -2.014833759e-03 -8.803690987e+00 -6.953460307e-01 0.000000000e+00 0.000000000e+00 0.000000000e+00 0.000000000e+00
9.400000e+08 -2.792046360e-01 -2.036172564e-03 -8.802025905e+00 -7.027116238e-01 0.000000000e+00 0.000000000e+00 0.000000000e+00 0.000000000e+00
9.500000e+08 -2.791997067e-01 -2.057500906e-03 -8.800343187e+00 -7.100736460e-01 0.000000000e+00 0.000000000e+00 0.000000000e+00 0.000000000e+00
9.600000e+08 -2.791947257e-01 -2.078818672e-03 -8.798642840e+00 -7.174320591e-01 0.000000000e+00 0.000000000e+00 0.000000000e+00 0.000000000e+00
9.700000e+08 -2.791896930e-01 -2.100125752e-03 -8.796924868e+00 -7.247868251e-01 0.000000000e+00 0.000000000e+00 0.000000000e+00 0.000000000e+00
9.800000e+08 -2.791846088e-01 -2.121422034e-03 -8.795189278e+00 -7.321379058e-01 0.000000000e+00 0.000000000e+00 0.000000000e+00 0.000000000e+00
9.900000e+08 -2.791794730e-01 -2.142707406e-03 -8.793436075e+00 -7.394852632e-01 0.000000000e+00 0.000000000e+00 0.000000000e+00 0.000000000e+00
1.000000e+09 -2.791742856e-01 -2.163981758e-03 -8.791665265e+00 -7.468288593e-01 0.000000000e+00 0.000000000e+00 0.000000000e+00 0.000000000e+00
1.010000e+09 -2.791690467e-01 -2.185244977e-03 -8.789876853e+00 -7.541686559e-01 0.000000000e+00 0.000000000e+00 0.000000000e+00 0.000000000e+00
1.020000e+09 -2.791637562e-01 -2.206496952e-03 -8.788070847e+00 -7.615046150e-01 0.000000000e+00 0.000000000e+00 0.000000000e+00 0.000000000e+00
1.030000e+09 -2.791584142e-01 -2.227737573e-03 -8.786247251e+00 -7.688366984e-01 0.000000000e+00 0.000000000e+00 0.000000000e+00 0.000000000e+00
1.040000e+09 -2.791530207e-01 -2.248966727e-03 -8.784406072e+00 -7.761648681e-01 0.000000000e+00 0.000000000e+00 0.000000000e+00 0.000000000e+00
1.050000e+09 -2.791475757e-01 -2.270184302e-03 -8.782547316e+00 -7.834890860e-01 0.000000000e+00 0.000000000e+00 0.000000000e+00 0.000000000e+00
1.060000e+09 -2.791420793e-01 -2.291390189e-03 -8.780670988e+00 -7.908093140e-01 0.000000000e+00 0.000000000e+00 0.000000000e+00 0.000000000e+00
1.070000e+09 -2.791365314e-01 -2.312584274e-03 -8.778777097e+00 -7.981255139e-01 0.000000000e+00 0.000000000e+00 0.000000000e+00 0.000000000e+00
1.080000e+09 -2.791309321e-01 -2.333766447e-03 -8.776865647e+00 -8.054376478e-01 0.000000000e+00 0.000000000e+00 0.000000000e+00 0.000000000e+00
1.090000e+09 -2.791252814e-01 -2.354936597e-03 -8.774936644e+00 -8.127456774e-01 0.000000000e+00 0.000000000e+00 0.000000000e+00 0.000000000e+00
1.100000e+09 -2.791195793e-01 -2.376094611e-03 -8.772990097e+00 -8.200495647e-01 0.000000000e+00 0.000000000e+00 0.000000000e+00 0.000000000e+00
1.110000e+09 -2.791138258e-01 -2.397240378e-03 -8.771026010e+00 -8.273492715e-01 0.000000000e+00 0.000000000e+00 0.000000000e+00 0.000000000e+00
1.120000e+09 -2.791080209e-01 -2.418373787e-03 -8.769044390e+00 -8.346447598e-01 0.000000000e+00 0.000000000e+00 0.000000000e+00 0.000000000e+00
1.130000e+09 -2.791021648e-01 -2.439494727e-03 -8.767045245e+00 -8.419359915e-01 0.000000000e+00 0.000000000e+00 0.000000000e+00 0.000000000e+00
1.140000e+09 -2.790962573e-01 -2.460603086e-03 -8.765028580e+00 -8.492229284e-01 0.000000000e+00 0.000000000e+00 0.000000000e+00 0.000000000e+00
1.150000e+09 -2.790902985e-01 -2.481698752e-03 -8.762994403e+00 -8.565055323e-01 0.000000000e+00 0.000000000e+00 0.000000000e+00 0.000000000e+00
1.160000e+09 -2.790842885e-01 -2.502781614e-03 -8.760942720e+00 -8.637837653e-01 0.000000000e+00 0.000000000e+00 0.000000000e+00 0.000000000e+00
1.170000e+09 -2.790782272e-01 -2.523851560e-03 -8.758873539e+00 -8.710575891e-01 0.000000000e+00 0.000000000e+00 0.000000000e+00 0.000000000e+00
1.180000e+09 -2.790721147e-01 -2.544908480e-03 -8.756786865e+00 -8.783269656e-01 0.000000000e+00 0.000000000e+00 0.000000000e+00 0.000000000e+00
1.190000e+09 -2.790659509e-01 -2.565952261e-03 -8.754682706e+00 -8.855918568e-01 0.000000000e+00 0.000000000e+00 0.000000000e+00 0.000000000e+00
1.200000e+09 -2.790597360e-01 -2.586982792e-03 -8.752561070e+00 -8.928522244e-01 0.000000000e+00 0.000000000e+00 0.000000000e+00 0.000000000e+00
1.210000e+09 -2.790534699e-01 -2.607999961e-03 -8.750421963e+00 -9.001080303e-01 0.000000000e+00 0.000000000e+00 0.000000000e+00 0.000000000e+00
1.220000e+09 -2.790471527e-01 -2.629003658e-03 -8.748265392e+00 -9.073592364e-01 0.000000000e+00 0.000000000e+00 0.000000000e+00 0.000000000e+00
1.230000e+09 -2.790407843e-01 -2.649993770e-03 -8.746091364e+00 -9.146058046e-01 0.000000000e+00 0.000000000e+00 0.000000000e+00 0.000000000e+00
1.240000e+09 -2.790343649e-01 -2.670970186e-03 -8.743899888e+00 -9.218476967e-01 0.000000000e+00 0.000000000e+00 0.000000000e+00 0.000000000e+00
1.250000e+09 -2.790278943e-01 -2.691932795e-03 -8.741690970e+00 -9.290848746e-01 0.000000000e+00 0.000000000e+00 0.000000000e+00 0.000000000e+00
1.260000e+09 -2.790213727e-01 -2.712881484e-03 -8.739464618e+00 -9.363173001e-01 0.000000000e+00 0.000000000e+00 0.000000000e+00 0.000000000e+00
1.270000e+09 -2.790148000e-01 -2.733816143e-03 -8.737220839e+00 -9.435449350e-01 0.000000000e+00 0.000000000e+00 0.000000000e+00 0.000000000e+00
1.280000e+09 -2.790081764e-01 -2.754736660e-03 -8.734959641e+00 -9.507677413e-01 0.000000000e+00 0.000000000e+00 0.000000000e+00 0.000000000e+00
1.290000e+09 -2.790015017e-01 -2.775642924e-03 -8.732681031e+00 -9.579856807e-01 0.000000000e+00 0.000000000e+00 0.000000000e+00 0.000000000e+00
1.300000e+09 -2.789947760e-01 -2.796534822e-03 -8.730385017e+00 -9.651987152e-01 0.000000000e+00 0.000000000e+00 0.000000000e+00 0.000000000e+00
1.310000e+09 -2.789879995e-01 -2.817412243e-03 -8.728071607e+00 -9.724068064e-01 0.000000000e+00 0.000000000e+00 0.000000000e+00 0.000000000e+00
1.320000e+09 -2.789811719e-01 -2.838275076e-03 -8.725740809e+00 -9.796099164e-01 0.000000000e+00 0.000000000e+00 0.000000000e+00 0.000000000e+00
1.330000e+09 -2.789742935e-01 -2.859123210e-03 -8.723392631e+00 -9.868080069e-01 0.000000000e+00 0.000000000e+00 0.000000000e+00 0.000000000e+00
1.340000e+09 -2.789673642e-01 -2.879956532e-03 -8.721027080e+00 -9.940010397e-01 0.000000000e+00 0.000000000e+00 0.000000000e+00 0.000000000e+00
1.350000e+09 -2.789603841e-01 -2.900774931e-03 -8.718644164e+00 -1.001188977e+00 0.000000000e+00 0.000000000e+00 0.000000000e+00 0.000000000e+00
1.360000e+09 -2.789533531e-01 -2.921578296e-03 -8.716243892e+00 -1.008371780e+00 0.000000000e+00 0.000000000e+00 0.000000000e+00 0.000000000e+00
1.370000e+09 -2.789462713e-01 -2.942366514e-03 -8.713826272e+00 -1.015549410e+00 0.000000000e+00 0.000000000e+00 0.000000000e+00 0.000000000e+00
1.380000e+09 -2.789391387e-01 -2.963139475e-03 -8.711391312e+00 -1.022721831e+00 0.000000000e+00 0.000000000e+00 0.000000000e+00 0.000000000e+00
1.390000e+09 -2.789319553e-01 -2.983897067e-03 -8.708939020e+00 -1.029889003e+00 0.000000000e+00 0.000000000e+00 0.000000000e+00 0.000000000e+00
1.400000e+09 -2.789247213e-01 -3.004639177e-03 -8.706469404e+00 -1.037050888e+00 0.000000000e+00 0.000000000e+00 0.000000000e+00 0.000000000e+00
1.410000e+09 -2.789174365e-01 -3.025365696e-03 -8.703982473e+00 -1.044207448e+00 0.000000000e+00 0.000000000e+00 0.000000000e+00 0.000000000e+00
1.420000e+09 -2.789101010e-01 -3.046076510e-03 -8.701478236e+00 -1.051358645e+00 0.000000000e+00 0.000000000e+00 0.000000000e+00 0.000000000e+00
1.430000e+09 -2.789027148e-01 -3.066771509e-03 -8.698956701e+00 -1.058504441e+00 0.000000000e+00 0.000000000e+00 0.000000000e+00 0.000000000e+00
1.440000e+09 -2.788952781e-01 -3.087450580e-03 -8.696417876e+00 -1.065644798e+00 0.000000000e+00 0.000000000e+00 0.000000000e+00 0.000000000e+00
1.450000e+09 -2.788877907e-01 -3.108113613e-03 -8.693861771e+00 -1.072779676e+00 0.000000000e+00 0.000000000e+00 0.000000000e+00 0.000000000e+00
1.460000e+09 -2.788802527e-01 -3.128760495e-03 -8.691288393e+00 -1.079909039e+00 0.000000000e+00 0.000000000e+00 0.000000000e+00 0.000000000e+00
1.470000e+09 -2.788726642e-01 -3.149391115e-03 -8.688697752e+00 -1.087032848e+00 0.000000000e+00 0.000000000e+00 0.000000000e+00 0.000000000e+00
1.480000e+09 -2.788650251e-01 -3.170005362e-03 -8.686089856e+00 -1.094151064e+00 0.000000000e+00 0.000000000e+00 0.000000000e+00 0.000000000e+00
1.490000e+09 -2.788573355e-01 -3.190603122e-03 -8.683464715e+00 -1.101263650e+00 0.000000000e+00 0.000000000e+00 0.000000000e+00 0.000000000e+00
1.500000e+09 -2.788495955e-01 -3.211184286e-03 -8.680822338e+00 -1.108370567e+00 0.000000000e+00 0.000000000e+00 0.000000000e+00 0.000000000e+00
1.510000e+09 -2.788418049e-01 -3.231748741e-03 -8.678162733e+00 -1.115471778e+00 0.000000000e+00 0.000000000e+00 0.000000000e+00 0.000000000e+00
1.520000e+09 -2.788339640e-01 -3.252296376e-03 -8.675485909e+00 -1.122567243e+00 0.000000000e+00 0.000000000e+00 0.000000000e+00 0.000000000e+00
1.530000e+09 -2.788260727e-01 -3.272827079e-03 -8.672791877e+00 -1.129656925e+00 0.000000000e+00 0.000000000e+00 0.000000000e+00 0.000000000e+00
1.540000e+09 -2.788181309e-01 -3.293340738e-03 -8.670080644e+00 -1.136740785e+00 0.000000000e+00 0.000000000e+00 0.000000000e+00 0.000000000e+00
1.550000e+09 -2.788101389e-01 -3.313837242e-03 -8.667352221e+00 -1.143818786e+00 0.000000000e+00 0.000000000e+00 0.000000000e+00 0.000000000e+00
1.560000e+09 -2.788020965e-01 -3.334316478e-03 -8.664606617e+00 -1.150890888e+00 0.000000000e+00 0.000000000e+00 0.000000000e+00 0.000000000e+00
1.570000e+09 -2.787940038e-01 -3.354778336e-03 -8.661843841e+00 -1.157957054e+00 0.000000000e+00 0.000000000e+00 0.000000000e+00 0.000000000e+00
1.580000e+09 -2.787858609e-01 -3.375222704e-03 -8.659063903e+00 -1.165017246e+00 0.000000000e+00 0.000000000e+00 0.000000000e+00 0.000000000e+00
1.590000e+09 -2.787776677e-01 -3.395649469e-03 -8.656266812e+00 -1.172071425e+00 0.000000000e+00 0.000000000e+00 0.000000000e+00 0.000000000e+00
1.600000e+09 -2.787694243e-01 -3.416058520e-03 -8.653452578e+00 -1.179119553e+00 0.000000000e+00 0.000000000e+00 0.000000000e+00 0.000000000e+00
1.610000e+09 -2.787611307e-01 -3.436449746e-03 -8.650621211e+00 -1.186161592e+00 0.000000000e+00 0.000000000e+00 0.000000000e+00 0.000000000e+00
1.620000e+09 -2.787527870e-01 -3.456823035e-03 -8.647772721e+00 -1.193197504e+00 0.000000000e+00 0.000000000e+00 0.000000000e+00 0.000000000e+00
1.630000e+09 -2.787443932e-01 -3.477178274e-03 -8.644907116e+00 -1.200227250e+00 0.000000000e+00 0.000000000e+00 0.000000000e+00 0.000000000e+00
1.640000e+09 -2.787359492e-01 -3.497515353e-03 -8.642024408e+00 -1.207250792e+00 0.000000000e+00 0.000000000e+00 0.000000000e+00 0.000000000e+00
1.650000e+09 -2.787274552e-01 -3.517834159e-03 -8.639124607e+00 -1.214268092e+00 0.000000000e+00 0.000000000e+00 0.000000000e+00 0.000000000e+00
1.660000e+09 -2.787189112e-01 -3.538134581e-03 -8.636207722e+00 -1.221279111e+00 0.000000000e+00 0.000000000e+00 0.000000000e+00 0.000000000e+00
1.670000e+09 -2.787103172e-01 -3.558416507e-03 -8.633273763e+00 -1.228283812e+00 0.000000000e+00 0.000000000e+00 0.000000000e+00 0.000000000e+00
1.680000e+09 -2.787016731e-01 -3.578679825e-03 -8.630322741e+00 -1.235282156e+00 0.000000000e+00 0.000000000e+00 0.000000000e+00 0.000000000e+00
1.690000e+09 -2.786929792e-01 -3.598924423e-03 -8.627354666e+00 -1.242274105e+00 0.000000000e+00 0.000000000e+00 0.000000000e+00 0.000000000e+00
1.700000e+09 -2.786842353e-01 -3.619150190e-03 -8.624369548e+00 -1.249259621e+00 0.000000000e+00 0.000000000e+00 0.000000000e+00 0.000000000e+00
1.710000e+09 -2.786754415e-01 -3.639357014e-03 -8.621367398e+00 -1.256238665e+00 0.000000000e+00 0.000000000e+00 0.000000000e+00 0.000000000e+00
1.720000e+09 -2.786665979e-01 -3.659544784e-03 -8.618348226e+00 -1.263211199e+00 0.000000000e+00 0.000000000e+00 0.000000000e+00 0.000000000e+00
1.730000e+09 -2.786577045e-01 -3.679713386e-03 -8.615312043e+00 -1.270177184e+00 0.000000000e+00 0.000000000e+00 0.000000000e+00 0.000000000e+00
1.740000e+09 -2.786487613e-01 -3.699862710e-03 -8.612258860e+00 -1.277136584e+00 0.000000000e+00 0.000000000e+00 0.000000000e+00 0.000000000e+00
1.750000e+09 -2.786397683e-01 -3.719992643e-03 -8.609188686e+00 -1.284089359e+00 0.000000000e+00 0.000000000e+00 0.000000000e+00 0.000000000e+00
1.760000e+09 -2.786307255e-01 -3.740103074e-03 -8.606101533e+00 -1.291035470e+00 0.000000000e+00 0.000000000e+00 0.000000000e+00 0.000000000e+00
1.770000e+09 -2.786216331e-01 -3.760193892e-03 -8.602997411e+00 -1.297974881e+00 0.000000000e+00 0.000000000e+00 0.000000000e+00 0.000000000e+00
1.780000e+09 -2.786124910e-01 -3.780264983e-03 -8.599876332e+00 -1.304907552e+00 0.000000000e+00 0.000000000e+00 0.000000000e+00 0.000000000e+00
1.790000e+09 -2.786032993e-01 -3.800316237e-03 -8.596738307e+00 -1.311833445e+00 0.000000000e+00 0.000000000e+00 0.000000000e+00 0.000000000e+00
1.800000e+09 -2.785940580e-01 -3.820347541e-03 -8.593583346e+00 -1.318752522e+00 0.000000000e+00 0.000000000e+00 0.000000000e+00 0.000000000e+00
1.810000e+09 -2.785847671e-01 -3.840358784e-03 -8.590411460e+00 -1.325664745e+00 0.000000000e+00 0.000000000e+00 0.000000000e+00 0.000000000e+00
1.820000e+09 -2.785754266e-01 -3.860349853e-03 -8.587222661e+00 -1.332570076e+00 0.000000000e+00 0.000000000e+00 0.000000000e+00 0.000000000e+00
1.830000e+09 -2.785660367e-01 -3.880320638e-03 -8.584016960e+00 -1.339468475e+00 0.000000000e+00 0.000000000e+00 0.000000000e+00 0.000000000e+00
1.840000e+09 -2.785565972e-01 -3.900271025e-03 -8.580794369e+00 -1.346359905e+00 0.000000000e+00 0.000000000e+00 0.000000000e+00 0.000000000e+00
1.850000e+09 -2.785471084e-01 -3.920200903e-03 -8.577554898e+00 -1.353244328e+00 0.000000000e+00 0.000000000e+00 0.000000000e+00 0.000000000e+00
1.860000e+09 -2.785375701e-01 -3.940110161e-03 -8.574298559e+00 -1.360121705e+00 0.000000000e+00 0.000000000e+00 0.000000000e+00 0.000000000e+00
1.870000e+09 -2.785279825e-01 -3.959998686e-03 -8.571025363e+00 -1.366991999e+00 0.000000000e+00 0.000000000e+00 0.000000000e+00 0.000000000e+00
1.880000e+09 -2.785183455e-01 -3.979866366e-03 -8.567735323e+00 -1.373855170e+00 0.000000000e+00 0.000000000e+00 0.000000000e+00 0.000000000e+00
1.890000e+09 -2.785086592e-01 -3.999713090e-03 -8.564428450e+00 -1.380711180e+00 0.000000000e+00 0.000000000e+00 0.000000000e+00 0.000000000e+00
1.900000e+09 -2.784989237e-01 -4.019538745e-03 -8.561104755e+00 -1.387559991e+00 0.000000000e+00 0.000000000e+00 0.000000000e+00 0.000000000e+00
1.910000e+09 -2.784891389e-01 -4.039343220e-03 -8.557764251e+00 -1.394401566e+00 0.000000000e+00 0.000000000e+00 0.000000000e+00 0.000000000e+00
1.920000e+09 -2.784793049e-01 -4.059126402e-03 -8.554406949e+00 -1.401235864e+00 0.000000000e+00 0.000000000e+00 0.000000000e+00 0.000000000e+00
1.930000e+09 -2.784694217e-01 -4.078888180e-03 -8.551032861e+00 -1.408062849e+00 0.000000000e+00 0.000000000e+00 0.000000000e+00 0.000000000e+00
1.940000e+09 -2.784594894e-01 -4.098628442e-03 -8.547641999e+00 -1.414882482e+00 0.000000000e+00 0.000000000e+00 0.000000000e+00 0.000000000e+00
1.950000e+09 -2.784495080e-01 -4.118347076e-03 -8.544234376e+00 -1.421694725e+00 0.000000000e+00 0.000000000e+00 0.000000000e+00 0.000000000e+00
1.960000e+09 -2.784394775e-01 -4.138043970e-03 -8.540810003e+00 -1.428499539e+00 0.000000000e+00 0.000000000e+00 0.000000000e+00 0.000000000e+00
1.970000e+09 -2.784293981e-01 -4.157719011e-03 -8.537368893e+00 -1.435296886e+00 0.000000000e+00 0.000000000e+00 0.000000000e+00 0.000000000e+00
1.980000e+09 -2.784192696e-01 -4.177372088e-03 -8.533911057e+00 -1.442086728e+00 0.000000000e+00 0.000000000e+00 0.000000000e+00 0.000000000e+00
1.990000e+09 -2.784090922e-01 -4.197003089e-03 -8.530436510e+00 -1.448869027e+00 0.000000000e+00 0.000000000e+00 0.000000000e+00 0.000000000e+00
2.000000e+09 -2.783988658e-01 -4.216611902e-03 -8.526945262e+00 -1.455643743e+00 0.000000000e+00 0.000000000e+00 0.000000000e+00 0.000000000e+00
2.010000e+09 -2.783885906e-01 -4.236198415e-03 -8.523437326e+00 -1.462410840e+00 0.000000000e+00 0.000000000e+00 0.000000000e+00 0.000000000e+00
2.020000e+09 -2.783782665e-01 -4.255762516e-03 -8.519912715e+00 -1.469170278e+00 0.000000000e+00 0.000000000e+00 0.000000000e+00 0.000000000e+00
2.030000e+09 -2.783678936e-01 -4.275304092e-03 -8.516371442e+00 -1.475922019e+00 0.000000000e+00 0.000000000e+00 0.000000000e+00 0.000000000e+00
2.040000e+09 -2.783574720e-01 -4.294823033e-03 -8.512813519e+00 -1.482666026e+00 0.000000000e+00 0.000000000e+00 0.000000000e+00 0.000000000e+00
2.050000e+09 -2.783470016e-01 -4.314319225e-03 -8.509238960e+00 -1.489402258e+00 0.000000000e+00 0.000000000e+00 0.000000000e+00 0.000000000e+00
2.060000e+09 -2.783364825e-01 -4.333792556e-03 -8.505647776e+00 -1.496130680e+00 0.000000000e+00 0.000000000e+00 0.000000000e+00 0.000000000e+00
2.070000e+09 -2.783259147e-01 -4.353242916e-03 -8.502039981e+00 -1.502851251e+00 0.000000000e+00 0.000000000e+00 0.000000000e+00 0.000000000e+00
2.080000e+09 -2.783152983e-01 -4.372670191e-03 -8.498415589e+00 -1.509563934e+00 0.000000000e+00 0.000000000e+00 0.000000000e+00 0.000000000e+00
2.090000e+09 -2.783046334e-01 -4.392074269e-03 -8.494774612e+00 -1.516268691e+00 0.000000000e+00 0.000000000e+00 0.000000000e+00 0.000000000e+00
2.100000e+09 -2.782939199e-01 -4.411455039e-03 -8.491117062e+00 -1.522965482e+00 0.000000000e+00 0.000000000e+00 0.000000000e+00 0.000000000e+00
2.110000e+09 -2.782831579e-01 -4.430812388e-03 -8.487442955e+00 -1.529654271e+00 0.000000000e+00 0.000000000e+00 0.000000000e+00 0.000000000e+00
2.120000e+09 -2.782723474e-01 -4.450146205e-03 -8.483752302e+00 -1.536335018e+00 0.000000000e+00 0.000000000e+00 0.000000000e+00 0.000000000e+00
2.130000e+09 -2.782614885e-01 -4.469456377e-03 -8.480045118e+00 -1.543007685e+00 0.000000000e+00 0.000000000e+00 0.000000000e+00 0.000000000e+00
2.140000e+09 -2.782505812e-01 -4.488742792e-03 -8.476321416e+00 -1.549672234e+00 0.000000000e+00 0.000000000e+00 0.000000000e+00 0.000000000e+00
2.150000e+09 -2.782396255e-01 -4.508005338e-03 -8.472581209e+00 -1.556328627e+00 0.000000000e+00 0.000000000e+00 0.000000000e+00 0.000000000e+00
2.160000e+09 -2.782286216e-01 -4.527243903e-03 -8.468824511e+00 -1.562976825e+00 0.000000000e+00 0.000000000e+00 0.000000000e+00 0.000000000e+00
2.170000e+09 -2.782175694e-01 -4.546458375e-03 -8.465051335e+00 -1.569616790e+00 0.000000000e+00 0.000000000e+00 0.000000000e+00 0.000000000e+00
2.180000e+09 -2.782064689e-01 -4.565648642e-03 -8.461261696e+00 -1.576248484e+00 0.000000000e+00 0.000000000e+00 0.000000000e+00 0.000000000e+00
2.190000e+09 -2.781953202e-01 -4.584814591e-03 -8.457455607e+00 -1.582871868e+00 0.000000000e+00 0.000000000e+00 0.000000000e+00 0.000000000e+00
2.200000e+09 -2.781841234e-01 -4.603956111e-03 -8.453633083e+00 -1.589486904e+00 0.000000000e+00 0.000000000e+00 0.000000000e+00 0.000000000e+00
2.210000e+09 -2.781728785e-01 -4.623073089e-03 -8.449794137e+00 -1.596093553e+00 0.000000000e+00 0.000000000e+00 0.000000000e+00 0.000000000e+00
2.220000e+09 -2.781615855e-01 -4.642165413e-03 -8.445938783e+00 -1.602691779e+00 0.000000000e+00 0.000000000e+00 0.000000000e+00 0.000000000e+00
2.230000e+09 -2.781502445e-01 -4.661232971e-03 -8.442067035e+00 -1.609281541e+00 0.000000000e+00 0.000000000e+00 0.000000000e+00 0.000000000e+00
2.240000e+09 -2.781388555e-01 -4.680275651e-03 -8.438178909e+00 -1.615862802e+00 0.000000000e+00 0.000000000e+00 0.000000000e+00 0.000000000e+00
2.250000e+09 -2.781274185e-01 -4.699293341e-03 -8.434274417e+00 -1.622435524e+00 0.000000000e+00 0.000000000e+00 0.000000000e+00 0.000000000e+00
2.260000e+09 -2.781159337e-01 -4.718285929e-03 -8.430353575e+00 -1.628999668e+00 0.000000000e+00 0.000000000e+00 0.000000000e+00 0.000000000e+00
2.270000e+09 -2.781044010e-01 -4.737253302e-03 -8.426416396e+00 -1.635555196e+00 0.000000000e+00 0.000000000e+00 0.000000000e+00 0.000000000e+00
2.280000e+09 -2.780928204e-01 -4.756195348e-03 -8.422462896e+00 -1.642102070e+00 0.000000000e+00 0.000000000e+00 0.000000000e+00 0.000000000e+00
2.290000e+09 -2.780811921e-01 -4.775111956e-03 -8.418493089e+00 -1.648640251e+00 0.000000000e+00 0.000000000e+00 0.000000000e+00 0.000000000e+00
2.300000e+09 -2.780695161e-01 -4.794003012e-03 -8.414506990e+00 -1.655169701e+00 0.000000000e+00 0.000000000e+00 0.000000000e+00 0.000000000e+00
2.310000e+09 -2.780577924e-01 -4.812868405e-03 -8.410504613e+00 -1.661690381e+00 0.000000000e+00 0.000000000e+00 0.000000000e+00 0.000000000e+00
2.320000e+09 -2.780460210e-01 -4.831708023e-03 -8.406485973e+00 -1.668202254e+00 0.000000000e+00 0.000000000e+00 0.000000000e+00 0.000000000e+00
2.330000e+09 -2.780342020e-01 -4.850521753e-03 -8.402451086e+00 -1.674705281e+00 0.000000000e+00 0.000000000e+00 0.000000000e+00 0.000000000e+00
2.340000e+09 -2.780223354e-01 -4.869309483e-03 -8.398399966e+00 -1.681199424e+00 0.000000000e+00 0.000000000e+00 0.000000000e+00 0.000000000e+00
2.350000e+09 -2.780104214e-01 -4.888071102e-03 -8.394332628e+00 -1.687684645e+00 0.000000000e+00 0.000000000e+00 0.000000000e+00 0.000000000e+00
2.360000e+09 -2.779984598e-01 -4.906806496e-03 -8.390249087e+00 -1.694160905e+00 0.000000000e+00 0.000000000e+00 0.000000000e+00 0.000000000e+00
2.370000e+09 -2.779864508e-01 -4.925515554e-03 -8.386149359e+00 -1.700628166e+00 0.000000000e+00 0.000000000e+00 0.000000000e+00 0.000000000e+00
2.380000e+09 -2.779743945e-01 -4.944198164e-03 -8.382033460e+00 -1.707086389e+00 0.000000000e+00 0.000000000e+00 0.000000000e+00 0.000000000e+00
2.390000e+09 -2.779622908e-01 -4.962854213e-03 -8.377901403e+00 -1.713535537e+00 0.000000000e+00 0.000000000e+00 0.000000000e+00 0.000000000e+00
2.400000e+09 -2.779501398e-01 -4.981483589e-03 -8.373753206e+00 -1.719975571e+00 0.000000000e+00 0.000000000e+00 0.000000000e+00 0.000000000e+00
2.410000e+09 -2.779379415e-01 -5.000086179e-03 -8.369588883e+00 -1.726406453e+00 0.000000000e+00 0.000000000e+00 0.000000000e+00 0.000000000e+00
2.420000e+09 -2.779256961e-01 -5.018661873e-03 -8.365408450e+00 -1.732828144e+00 0.000000000e+00 0.000000000e+00 0.000000000e+00 0.000000000e+00
2.430000e+09 -2.779134035e-01 -5.037210557e-03 -8.361211922e+00 -1.739240606e+00 0.000000000e+00 0.000000000e+00 0.000000000e+00 0.000000000e+00
2.440000e+09 -2.779010637e-01 -5.055732120e-03 -8.356999316e+00 -1.745643802e+00 0.000000000e+00 0.000000000e+00 0.000000000e+00 0.000000000e+00
2.450000e+09 -2.778886769e-01 -5.074226449e-03 -8.352770648e+00 -1.752037692e+00 0.000000000e+00 0.000000000e+00 0.000000000e+00 0.000000000e+00
2.460000e+09 -2.778762431e-01 -5.092693432e-03 -8.348525933e+00 -1.758422239e+00 0.000000000e+00 0.000000000e+00 0.000000000e+00 0.000000000e+00
2.470000e+09 -2.778637623e-01 -5.111132956e-03 -8.344265187e+00 -1.764797403e+00 0.000000000e+00 0.000000000e+00 0.000000000e+00 0.000000000e+00
2.480000e+09 -2.778512346e-01 -5.129544911e-03 -8.339988426e+00 -1.771163148e+00 0.000000000e+00 0.000000000e+00 0.000000000e+00 0.000000000e+00
2.490000e+09 -2.778386600e-01 -5.147929182e-03 -8.335695668e+00 -1.777519434e+00 0.000000000e+00 0.000000000e+00 0.000000000e+00 0.000000000e+00
2.500000e+09 -2.778260386e-01 -5.166285659e-03 -8.331386927e+00 -1.783866224e+00 0.000000000e+00 0.000000000e+00 0.000000000e+00 0.000000000e+00
2.510000e+09 -2.778133704e-01 -5.184614229e-03 -8.327062220e+00 -1.790203479e+00 0.000000000e+00 0.000000000e+00 0.000000000e+00 0.000000000e+00
2.520000e+09 -2.778006554e-01 -5.202914780e-03 -8.322721564e+00 -1.796531160e+00 0.000000000e+00 0.000000000e+00 0.000000000e+00 0.000000000e+00
2.530000e+09 -2.777878938e-01 -5.221187200e-03 -8.318364975e+00 -1.802849230e+00 0.000000000e+00 0.000000000e+00 0.000000000e+00 0.000000000e+00
2.540000e+09 -2.777750855e-01 -5.239431376e-03 -8.313992470e+00 -1.809157651e+00 0.000000000e+00 0.000000000e+00 0.000000000e+00 0.000000000e+00
2.550000e+09 -2.777622306e-01 -5.257647197e-03 -8.309604065e+00 -1.815456383e+00 0.000000000e+00 0.000000000e+00 0.000000000e+00 0.000000000e+00
2.560000e+09 -2.777493292e-01 -5.275834550e-03 -8.305199777e+00 -1.821745390e+00 0.000000000e+00 0.000000000e+00 0.000000000e+00 0.000000000e+00
2.570000e+09 -2.777363813e-01 -5.293993323e-03 -8.300779623e+00 -1.828024632e+00 0.000000000e+00 0.000000000e+00 0.000000000e+00 0.000000000e+00
2.580000e+09 -2.777233869e-01 -5.312123404e-03 -8.296343620e+00 -1.834294071e+00 0.000000000e+00 0.000000000e+00 0.000000000e+00 0.000000000e+00
2.590000e+09 -2.777103462e-01 -5.330224681e-03 -8.291891785e+00 -1.840553670e+00 0.000000000e+00 0.000000000e+00 0.000000000e+00 0.000000000e+00
2.600000e+09 -2.776972590e-01 -5.348297042e-03 -8.287424135e+00 -1.846803389e+00 0.000000000e+00 0.000000000e+00 0.000000000e+00 0.000000000e+00
2.610000e+09 -2.776841256e-01 -5.366340374e-03 -8.282940687e+00 -1.853043192e+00 0.000000000e+00 0.000000000e+00 0.000000000e+00 0.000000000e+00
2.620000e+09 -2.776709460e-01 -5.384354565e-03 -8.278441458e+00 -1.859273038e+00 0.000000000e+00 0.000000000e+00 0.000000000e+00 0.000000000e+00
2.630000e+09 -2.776577201e-01 -5.402339504e-03 -8.273926466e+00 -1.865492891e+00 0.000000000e+00 0.000000000e+00 0.000000000e+00 0.000000000e+00
2.640000e+09 -2.776444481e-01 -5.420295078e-03 -8.269395728e+00 -1.871702712e+00 0.000000000e+00 0.000000000e+00 0.000000000e+00 0.000000000e+00
2.650000e+09 -2.776311300e-01 -5.438221175e-03 -8.264849262e+00 -1.877902463e+00 0.000000000e+00 0.000000000e+00 0.000000000e+00 0.000000000e+00
2.660000e+09 -2.776177659e-01 -5.456117683e-03 -8.260287084e+00 -1.884092105e+00 0.000000000e+00 0.000000000e+00 0.000000000e+00 0.000000000e+00
2.670000e+09 -2.776043557e-01 -5.473984490e-03 -8.255709213e+00 -1.890271601e+00 0.000000000e+00 0.000000000e+00 0.000000000e+00 0.000000000e+00
2.680000e+09 -2.775908997e-01 -5.491821484e-03 -8.251115667e+00 -1.896440912e+00 0.000000000e+00 0.000000000e+00 0.000000000e+00 0.000000000e+00
2.690000e+09 -2.775773977e-01 -5.509628552e-03 -8.246506463e+00 -1.902600000e+00 0.000000000e+00 0.000000000e+00 0.000000000e+00 0.000000000e+00
2.700000e+09 -2.775638499e-01 -5.527405584e-03 -8.241881619e+00 -1.908748827e+00 0.000000000e+00 0.000000000e+00 0.000000000e+00 0.000000000e+00
2.710000e+09 -2.775502563e-01 -5.545152465e-03 -8.237241153e+00 -1.914887355e+00 0.000000000e+00 0.000000000e+00 0.000000000e+00 0.000000000e+00
2.720000e+09 -2.775366170e-01 -5.562869086e-03 -8.232585083e+00 -1.921015545e+00 0.000000000e+00 0.000000000e+00 0.000000000e+00 0.000000000e+00
2.730000e+09 -2.775229320e-01 -5.580555333e-03 -8.227913428e+00 -1.927133359e+00 0.000000000e+00 0.000000000e+00 0.000000000e+00 0.000000000e+00
2.740000e+09 -2.775092014e-01 -5.598211095e-03 -8.223226205e+00 -1.933240760e+00 0.000000000e+00 0.000000000e+00 0.000000000e+00 0.000000000e+00
2.750000e+09 -2.774954251e-01 -5.615836260e-03 -8.218523434e+00 -1.939337708e+00 0.000000000e+00 0.000000000e+00 0.000000000e+00 0.000000000e+00
2.760000e+09 -2.774816034e-01 -5.633430715e-03 -8.213805131e+00 -1.945424167e+00 0.000000000e+00 0.000000000e+00 0.000000000e+00 0.000000000e+00
2.770000e+09 -2.774677362e-01 -5.650994348e-03 -8.209071316e+00 -1.951500097e+00 0.000000000e+00 0.000000000e+00 0.000000000e+00 0.000000000e+00
2.780000e+09 -2.774538236e-01 -5.668527049e-03 -8.204322008e+00 -1.957565461e+00 0.000000000e+00 0.000000000e+00 0.000000000e+00 0.000000000e+00
2.790000e+09 -2.774398657e-01 -5.686028704e-03 -8.199557225e+00 -1.963620220e+00 0.000000000e+00 0.000000000e+00 0.000000000e+00 0.000000000e+00
2.800000e+09 -2.774258624e-01 -5.703499202e-03 -8.194776985e+00 -1.969664336e+00 0.000000000e+00 0.000000000e+00 0.000000000e+00 0.000000000e+00
2.810000e+09 -2.774118139e-01 -5.720938431e-03 -8.189981308e+00 -1.975697772e+00 0.000000000e+00 0.000000000e+00 0.000000000e+00 0.000000000e+00
2.820000e+09 -2.773977202e-01 -5.738346279e-03 -8.185170213e+00 -1.981720489e+00 0.000000000e+00 0.000000000e+00 0.000000000e+00 0.000000000e+00
2.830000e+09 -2.773835814e-01 -5.755722635e-03 -8.180343718e+00 -1.987732448e+00 0.000000000e+00 0.000000000e+00 0.000000000e+00 0.000000000e+00
2.840000e+09 -2.773693975e-01 -5.773067385e-03 -8.175501842e+00 -1.993733613e+00 0.000000000e+00 0.000000000e+00 0.000000000e+00 0.000000000e+00
2.850000e+09 -2.773551685e-01 -5.790380419e-03 -8.170644606e+00 -1.999723944e+00 0.000000000e+00 0.000000000e+00 0.000000000e+00 0.000000000e+00
2.860000e+09 -2.773408946e-01 -5.807661625e-03 -8.165772027e+00 -2.005703404e+00 0.000000000e+00 0.000000000e+00 0.000000000e+00 0.000000000e+00
2.870000e+09 -2.773265758e-01 -5.824910890e-03 -8.160884125e+00 -2.011671955e+00 0.000000000e+00 0.000000000e+00 0.000000000e+00 0.000000000e+00
2.880000e+09 -2.773122121e-01 -5.842128103e-03 -8.155980921e+00 -2.017629558e+00 0.000000000e+00 0.000000000e+00 0.000000000e+00 0.000000000e+00
2.890000e+09 -2.772978036e-01 -5.859313153e-03 -8.151062432e+00 -2.023576175e+00 0.000000000e+00 0.000000000e+00 0.000000000e+00 0.000000000e+00
2.900000e+09 -2.772833504e-01 -5.876465927e-03 -8.146128680e+00 -2.029511769e+00 0.000000000e+00 0.000000000e+00 0.000000000e+00 0.000000000e+00
2.910000e+09 -2.772688525e-01 -5.893586314e-03 -8.141179683e+00 -2.035436302e+00 0.000000000e+00 0.000000000e+00 0.000000000e+00 0.000000000e+00
2.920000e+09 -2.772543099e-01 -5.910674202e-03 -8.136215461e+00 -2.041349734e+00 0.000000000e+00 0.000000000e+00 0.000000000e+00 0.000000000e+00
2.930000e+09 -2.772397228e-01 -5.927729479e-03 -8.131236035e+00 -2.047252029e+00 0.000000000e+00 0.000000000e+00 0.000000000e+00 0.000000000e+00
2.940000e+09 -2.772250912e-01 -5.944752034e-03 -8.126241424e+00 -2.053143148e+00 0.000000000e+00 0.000000000e+00 0.000000000e+00 0.000000000e+00
2.950000e+09 -2.772104151e-01 -5.961741755e-03 -8.121231648e+00 -2.059023053e+00 0.000000000e+00 0.000000000e+00 0.000000000e+00 0.000000000e+00
2.960000e+09 -2.771956947e-01 -5.978698531e-03 -8.116206727e+00 -2.064891707e+00 0.000000000e+00 0.000000000e+00 0.000000000e+00 0.000000000e+00
2.970000e+09 -2.771809299e-01 -5.995622249e-03 -8.111166682e+00 -2.070749070e+00 0.000000000e+00 0.000000000e+00 0.000000000e+00 0.000000000e+00
2.980000e+09 -2.771661208e-01 -6.012512799e-03 -8.106111533e+00 -2.076595106e+00 0.000000000e+00 0.000000000e+00 0.000000000e+00 0.000000000e+00
2.990000e+09 -2.771512675e-01 -6.029370068e-03 -8.101041300e+00 -2.082429776e+00 0.000000000e+00 0.000000000e+00 0.000000000e+00 0.000000000e+00
3.000000e+09 -2.771363700e-01 -6.046193946e-03 -8.095956003e+00 -2.088253042e+00 0.000000000e+00 0.000000000e+00 0.000000000e+00 0.000000000e+00
