! rfsim (KiCad + openEMS)
# HZ S RI R 50
5.000000e+08 -1.232966147e+00 2.316235153e-02 -1.987520521e+02 -1.769249968e+01 0.000000000e+00 0.000000000e+00 0.000000000e+00 0.000000000e+00
5.100000e+08 -1.232993298e+00 2.362617514e-02 -1.987313591e+02 -1.804677581e+01 0.000000000e+00 0.000000000e+00 0.000000000e+00 0.000000000e+00
5.200000e+08 -1.233020991e+00 2.409003279e-02 -1.987102531e+02 -1.840107732e+01 0.000000000e+00 0.000000000e+00 0.000000000e+00 0.000000000e+00
5.300000e+08 -1.233049226e+00 2.455392513e-02 -1.986887338e+02 -1.875540471e+01 0.000000000e+00 0.000000000e+00 0.000000000e+00 0.000000000e+00
5.400000e+08 -1.233078006e+00 2.501785279e-02 -1.986668011e+02 -1.910975847e+01 0.000000000e+00 0.000000000e+00 0.000000000e+00 0.000000000e+00
5.500000e+08 -1.233107328e+00 2.548181643e-02 -1.986444547e+02 -1.946413911e+01 0.000000000e+00 0.000000000e+00 0.000000000e+00 0.000000000e+00
5.600000e+08 -1.233137194e+00 2.594581670e-02 -1.986216946e+02 -1.981854713e+01 0.000000000e+00 0.000000000e+00 0.000000000e+00 0.000000000e+00
5.700000e+08 -1.233167605e+00 2.640985423e-02 -1.985985203e+02 -2.017298304e+01 0.000000000e+00 0.000000000e+00 0.000000000e+00 0.000000000e+00
5.800000e+08 -1.233198559e+00 2.687392967e-02 -1.985749318e+02 -2.052744733e+01 0.000000000e+00 0.000000000e+00 0.000000000e+00 0.000000000e+00
5.900000e+08 -1.233230059e+00 2.733804366e-02 -1.985509289e+02 -2.088194051e+01 0.000000000e+00 0.000000000e+00 0.000000000e+00 0.000000000e+00
6.000000e+08 -1.233262104e+00 2.780219684e-02 -1.985265112e+02 -2.123646308e+01 0.000000000e+00 0.000000000e+00 0.000000000e+00 0.000000000e+00
6.100000e+08 -1.233294693e+00 2.826638986e-02 -1.985016785e+02 -2.159101555e+01 0.000000000e+00 0.000000000e+00 0.000000000e+00 0.000000000e+00
6.200000e+08 -1.233327829e+00 2.873062336e-02 -1.984764307e+02 -2.194559842e+01 0.000000000e+00 0.000000000e+00 0.000000000e+00 0.000000000e+00
6.300000e+08 -1.233361511e+00 2.919489797e-02 -1.984507675e+02 -2.230021219e+01 0.000000000e+00 0.000000000e+00 0.000000000e+00 0.000000000e+00
6.400000e+08 -1.233395739e+00 2.965921433e-02 -1.984246886e+02 -2.265485736e+01 0.000000000e+00 0.000000000e+00 0.000000000e+00 0.000000000e+00
6.500000e+08 -1.233430513e+00 3.012357308e-02 -1.983981938e+02 -2.300953444e+01 0.000000000e+00 0.000000000e+00 0.000000000e+00 0.000000000e+00
6.600000e+08 -1.233465835e+00 3.058797486e-02 -1.983712828e+02 -2.336424392e+01 0.000000000e+00 0.000000000e+00 0.000000000e+00 0.000000000e+00
6.700000e+08 -1.233501704e+00 3.105242030e-02 -1.983439554e+02 -2.371898632e+01 0.000000000e+00 0.000000000e+00 0.000000000e+00 0.000000000e+00
6.800000e+08 -1.233538121e+00 3.151691004e-02 -1.983162114e+02 -2.407376214e+01 0.000000000e+00 0.000000000e+00 0.000000000e+00 0.000000000e+00
6.900000e+08 -1.233575087e+00 3.198144471e-02 -1.982880504e+02 -2.442857187e+01 0.000000000e+00 0.000000000e+00 0.000000000e+00 0.000000000e+00
7.000000e+08 -1.233612600e+00 3.244602495e-02 -1.982594722e+02 -2.478341603e+01 0.000000000e+00 0.000000000e+00 0.000000000e+00 0.000000000e+00
7.100000e+08 -1.233650663e+00 3.291065139e-02 -1.982304766e+02 -2.513829511e+01 0.000000000e+00 0.000000000e+00 0.000000000e+00 0.000000000e+00
7.200000e+08 -1.233689275e+00 3.337532466e-02 -1.982010632e+02 -2.549320961e+01 0.000000000e+00 0.000000000e+00 0.000000000e+00 0.000000000e+00
7.300000e+08 -1.233728436e+00 3.384004540e-02 -1.981712317e+02 -2.584816004e+01 0.000000000e+00 0.000000000e+00 0.000000000e+00 0.000000000e+00
7.400000e+08 -1.233768148e+00 3.430481424e-02 -1.981409820e+02 -2.620314691e+01 0.000000000e+00 0.000000000e+00 0.000000000e+00 0.000000000e+00
7.500000e+08 -1.233808409e+00 3.476963180e-02 -1.981103136e+02 -2.655817071e+01 0.000000000e+00 0.000000000e+00 0.000000000e+00 0.000000000e+00
7.600000e+08 -1.233849222e+00 3.523449873e-02 -1.980792263e+02 -2.691323195e+01 0.000000000e+00 0.000000000e+00 0.000000000e+00 0.000000000e+00
7.700000e+08 -1.233890586e+00 3.569941564e-02 -1.980477199e+02 -2.726833113e+01 0.000000000e+00 0.000000000e+00 0.000000000e+00 0.000000000e+00
7.800000e+08 -1.233932502e+00 3.616438317e-02 -1.980157939e+02 -2.762346874e+01 0.000000000e+00 0.000000000e+00 0.000000000e+00 0.000000000e+00
7.900000e+08 -1.233974970e+00 3.662940195e-02 -1.979834481e+02 -2.797864530e+01 0.000000000e+00 0.000000000e+00 0.000000000e+00 0.000000000e+00
8.000000e+08 -1.234017990e+00 3.709447261e-02 -1.979506822e+02 -2.833386131e+01 0.000000000e+00 0.000000000e+00 0.000000000e+00 0.000000000e+00
8.100000e+08 -1.234061563e+00 3.755959577e-02 -1.979174959e+02 -2.868911726e+01 0.000000000e+00 0.000000000e+00 0.000000000e+00 0.000000000e+00
8.200000e+08 -1.234105689e+00 3.802477207e-02 -1.978838888e+02 -2.904441366e+01 0.000000000e+00 0.000000000e+00 0.000000000e+00 0.000000000e+00
8.300000e+08 -1.234150369e+00 3.849000213e-02 -1.978498606e+02 -2.939975100e+01 0.000000000e+00 0.000000000e+00 0.000000000e+00 0.000000000e+00
8.400000e+08 -1.234195604e+00 3.895528657e-02 -1.978154110e+02 -2.975512980e+01 0.000000000e+00 0.000000000e+00 0.000000000e+00 0.000000000e+00
8.500000e+08 -1.234241392e+00 3.942062604e-02 -1.977805397e+02 -3.011055055e+01 0.000000000e+00 0.000000000e+00 0.000000000e+00 0.000000000e+00
8.600000e+08 -1.234287736e+00 3.988602114e-02 -1.977452463e+02 -3.046601374e+01 0.000000000e+00 0.000000000e+00 0.000000000e+00 0.000000000e+00
8.700000e+08 -1.234334636e+00 4.035147252e-02 -1.977095304e+02 -3.082151989e+01 0.000000000e+00 0.000000000e+00 0.000000000e+00 0.000000000e+00
8.800000e+08 -1.234382091e+00 4.081698079e-02 -1.976733918e+02 -3.117706949e+01 0.000000000e+00 0.000000000e+00 0.000000000e+00 0.000000000e+00
8.900000e+08 -1.234430103e+00 4.128254659e-02 -1.976368301e+02 -3.153266304e+01 0.000000000e+00 0.000000000e+00 0.000000000e+00 0.000000000e+00
9.000000e+08 -1.234478672e+00 4.174817053e-02 -1.975998448e+02 -3.188830104e+01 0.000000000e+00 0.000000000e+00 0.000000000e+00 0.000000000e+00
9.100000e+08 -1.234527798e+00 4.221385325e-02 -1.975624358e+02 -3.224398398e+01 0.000000000e+00 0.000000000e+00 0.000000000e+00 0.000000000e+00
9.200000e+08 -1.234577482e+00 4.267959537e-02 -1.975246025e+02 -3.259971238e+01 0.000000000e+00 0.000000000e+00 0.000000000e+00 0.000000000e+00
9.300000e+08 -1.234627724e+00 4.314539752e-02 -1.974863446e+02 -3.295548671e+01 0.000000000e+00 0.000000000e+00 0.000000000e+00 0.000000000e+00
9.400000e+08 -1.234678525e+00 4.361126033e-02 -1.974476618e+02 -3.331130750e+01 0.000000000e+00 0.000000000e+00 0.000000000e+00 0.000000000e+00
9.500000e+08 -1.234729886e+00 4.407718441e-02 -1.974085537e+02 -3.366717522e+01 0.000000000e+00 0.000000000e+00 0.000000000e+00 0.000000000e+00
9.600000e+08 -1.234781806e+00 4.454317039e-02 -1.973690199e+02 -3.402309038e+01 0.000000000e+00 0.000000000e+00 0.000000000e+00 0.000000000e+00
9.700000e+08 -1.234834286e+00 4.500921891e-02 -1.973290600e+02 -3.437905348e+01 0.000000000e+00 0.000000000e+00 0.000000000e+00 0.000000000e+00
9.800000e+08 -1.234887327e+00 4.547533059e-02 -1.972886735e+02 -3.473506501e+01 0.000000000e+00 0.000000000e+00 0.000000000e+00 0.000000000e+00
9.900000e+08 -1.234940930e+00 4.594150604e-02 -1.972478602e+02 -3.509112546e+01 0.000000000e+00 0.000000000e+00 0.000000000e+00 0.000000000e+00
1.000000e+09 -1.234995094e+00 4.640774591e-02 -1.972066196e+02 -3.544723534e+01 0.000000000e+00 0.000000000e+00 0.000000000e+00 0.000000000e+00
1.010000e+09 -1.235049820e+00 4.687405081e-02 -1.971649514e+02 -3.580339514e+01 0.000000000e+00 0.000000000e+00 0.000000000e+00 0.000000000e+00
1.020000e+09 -1.235105110e+00 4.734042137e-02 -1.971228550e+02 -3.615960535e+01 0.000000000e+00 0.000000000e+00 0.000000000e+00 0.000000000e+00
1.030000e+09 -1.235160962e+00 4.780685822e-02 -1.970803301e+02 -3.651586647e+01 0.000000000e+00 0.000000000e+00 0.000000000e+00 0.000000000e+00
1.040000e+09 -1.235217379e+00 4.827336199e-02 -1.970373763e+02 -3.687217898e+01 0.000000000e+00 0.000000000e+00 0.000000000e+00 0.000000000e+00
1.050000e+09 -1.235274360e+00 4.873993329e-02 -1.969939931e+02 -3.722854340e+01 0.000000000e+00 0.000000000e+00 0.000000000e+00 0.000000000e+00
1.060000e+09 -1.235331906e+00 4.920657276e-02 -1.969501802e+02 -3.758496020e+01 0.000000000e+00 0.000000000e+00 0.000000000e+00 0.000000000e+00
1.070000e+09 -1.235390018e+00 4.967328103e-02 -1.969059370e+02 -3.794142988e+01 0.000000000e+00 0.000000000e+00 0.000000000e+00 0.000000000e+00
1.080000e+09 -1.235448695e+00 5.014005871e-02 -1.968612632e+02 -3.829795294e+01 0.000000000e+00 0.000000000e+00 0.000000000e+00 0.000000000e+00
1.090000e+09 -1.235507940e+00 5.060690644e-02 -1.968161583e+02 -3.865452986e+01 0.000000000e+00 0.000000000e+00 0.000000000e+00 0.000000000e+00
1.100000e+09 -1.235567751e+00 5.107382485e-02 -1.967706219e+02 -3.901116113e+01 0.000000000e+00 0.000000000e+00 0.000000000e+00 0.000000000e+00
1.110000e+09 -1.235628130e+00 5.154081456e-02 -1.967246535e+02 -3.936784725e+01 0.000000000e+00 0.000000000e+00 0.000000000e+00 0.000000000e+00
1.120000e+09 -1.235689078e+00 5.200787620e-02 -1.966782527e+02 -3.972458871e+01 0.000000000e+00 0.000000000e+00 0.000000000e+00 0.000000000e+00
1.130000e+09 -1.235750595e+00 5.247501039e-02 -1.966314189e+02 -4.008138599e+01 0.000000000e+00 0.000000000e+00 0.000000000e+00 0.000000000e+00
1.140000e+09 -1.235812681e+00 5.294221777e-02 -1.965841519e+02 -4.043823958e+01 0.000000000e+00 0.000000000e+00 0.000000000e+00 0.000000000e+00
1.150000e+09 -1.235875337e+00 5.340949897e-02 -1.965364509e+02 -4.079514998e+01 0.000000000e+00 0.000000000e+00 0.000000000e+00 0.000000000e+00
1.160000e+09 -1.235938564e+00 5.387685460e-02 -1.964883157e+02 -4.115211766e+01 0.000000000e+00 0.000000000e+00 0.000000000e+00 0.000000000e+00
1.170000e+09 -1.236002362e+00 5.434428530e-02 -1.964397457e+02 -4.150914313e+01 0.000000000e+00 0.000000000e+00 0.000000000e+00 0.000000000e+00
1.180000e+09 -1.236066732e+00 5.481179170e-02 -1.963907405e+02 -4.186622686e+01 0.000000000e+00 0.000000000e+00 0.000000000e+00 0.000000000e+00
1.190000e+09 -1.236131675e+00 5.527937443e-02 -1.963412995e+02 -4.222336934e+01 0.000000000e+00 0.000000000e+00 0.000000000e+00 0.000000000e+00
1.200000e+09 -1.236197191e+00 5.574703411e-02 -1.962914223e+02 -4.258057105e+01 0.000000000e+00 0.000000000e+00 0.000000000e+00 0.000000000e+00
1.210000e+09 -1.236263281e+00 5.621477137e-02 -1.962411084e+02 -4.293783249e+01 0.000000000e+00 0.000000000e+00 0.000000000e+00 0.000000000e+00
1.220000e+09 -1.236329945e+00 5.668258684e-02 -1.961903573e+02 -4.329515414e+01 0.000000000e+00 0.000000000e+00 0.000000000e+00 0.000000000e+00
1.230000e+09 -1.236397184e+00 5.715048115e-02 -1.961391684e+02 -4.365253647e+01 0.000000000e+00 0.000000000e+00 0.000000000e+00 0.000000000e+00
1.240000e+09 -1.236464999e+00 5.761845493e-02 -1.960875413e+02 -4.400997998e+01 0.000000000e+00 0.000000000e+00 0.000000000e+00 0.000000000e+00
1.250000e+09 -1.236533391e+00 5.808650880e-02 -1.960354755e+02 -4.436748515e+01 0.000000000e+00 0.000000000e+00 0.000000000e+00 0.000000000e+00
1.260000e+09 -1.236602359e+00 5.855464340e-02 -1.959829704e+02 -4.472505246e+01 0.000000000e+00 0.000000000e+00 0.000000000e+00 0.000000000e+00
1.270000e+09 -1.236671905e+00 5.902285936e-02 -1.959300255e+02 -4.508268238e+01 0.000000000e+00 0.000000000e+00 0.000000000e+00 0.000000000e+00
1.280000e+09 -1.236742030e+00 5.949115730e-02 -1.958766403e+02 -4.544037541e+01 0.000000000e+00 0.000000000e+00 0.000000000e+00 0.000000000e+00
1.290000e+09 -1.236812733e+00 5.995953785e-02 -1.958228143e+02 -4.579813203e+01 0.000000000e+00 0.000000000e+00 0.000000000e+00 0.000000000e+00
1.300000e+09 -1.236884016e+00 6.042800164e-02 -1.957685469e+02 -4.615595270e+01 0.000000000e+00 0.000000000e+00 0.000000000e+00 0.000000000e+00
1.310000e+09 -1.236955880e+00 6.089654929e-02 -1.957138376e+02 -4.651383792e+01 0.000000000e+00 0.000000000e+00 0.000000000e+00 0.000000000e+00
1.320000e+09 -1.237028324e+00 6.136518145e-02 -1.956586858e+02 -4.687178816e+01 0.000000000e+00 0.000000000e+00 0.000000000e+00 0.000000000e+00
1.330000e+09 -1.237101351e+00 6.183389873e-02 -1.956030910e+02 -4.722980390e+01 0.000000000e+00 0.000000000e+00 0.000000000e+00 0.000000000e+00
1.340000e+09 -1.237174960e+00 6.230270177e-02 -1.955470527e+02 -4.758788561e+01 0.000000000e+00 0.000000000e+00 0.000000000e+00 0.000000000e+00
1.350000e+09 -1.237249152e+00 6.277159119e-02 -1.954905703e+02 -4.794603378e+01 0.000000000e+00 0.000000000e+00 0.000000000e+00 0.000000000e+00
1.360000e+09 -1.237323928e+00 6.324056761e-02 -1.954336432e+02 -4.830424889e+01 0.000000000e+00 0.000000000e+00 0.000000000e+00 0.000000000e+00
1.370000e+09 -1.237399289e+00 6.370963168e-02 -1.953762709e+02 -4.866253139e+01 0.000000000e+00 0.000000000e+00 0.000000000e+00 0.000000000e+00
1.380000e+09 -1.237475236e+00 6.417878401e-02 -1.953184527e+02 -4.902088178e+01 0.000000000e+00 0.000000000e+00 0.000000000e+00 0.000000000e+00
1.390000e+09 -1.237551768e+00 6.464802523e-02 -1.952601882e+02 -4.937930053e+01 0.000000000e+00 0.000000000e+00 0.000000000e+00 0.000000000e+00
1.400000e+09 -1.237628887e+00 6.511735597e-02 -1.952014767e+02 -4.973778811e+01 0.000000000e+00 0.000000000e+00 0.000000000e+00 0.000000000e+00
1.410000e+09 -1.237706594e+00 6.558677685e-02 -1.951423176e+02 -5.009634499e+01 0.000000000e+00 0.000000000e+00 0.000000000e+00 0.000000000e+00
1.420000e+09 -1.237784889e+00 6.605628851e-02 -1.950827104e+02 -5.045497165e+01 0.000000000e+00 0.000000000e+00 0.000000000e+00 0.000000000e+00
1.430000e+09 -1.237863774e+00 6.652589156e-02 -1.950226545e+02 -5.081366855e+01 0.000000000e+00 0.000000000e+00 0.000000000e+00 0.000000000e+00
1.440000e+09 -1.237943248e+00 6.699558664e-02 -1.949621492e+02 -5.117243618e+01 0.000000000e+00 0.000000000e+00 0.000000000e+00 0.000000000e+00
1.450000e+09 -1.238023313e+00 6.746537436e-02 -1.949011940e+02 -5.153127500e+01 0.000000000e+00 0.000000000e+00 0.000000000e+00 0.000000000e+00
1.460000e+09 -1.238103970e+00 6.793525536e-02 -1.948397883e+02 -5.189018549e+01 0.000000000e+00 0.000000000e+00 0.000000000e+00 0.000000000e+00
1.470000e+09 -1.238185219e+00 6.840523025e-02 -1.947779314e+02 -5.224916810e+01 0.000000000e+00 0.000000000e+00 0.000000000e+00 0.000000000e+00
1.480000e+09 -1.238267061e+00 6.887529967e-02 -1.947156227e+02 -5.260822332e+01 0.000000000e+00 0.000000000e+00 0.000000000e+00 0.000000000e+00
1.490000e+09 -1.238349496e+00 6.934546422e-02 -1.946528616e+02 -5.296735160e+01 0.000000000e+00 0.000000000e+00 0.000000000e+00 0.000000000e+00
1.500000e+09 -1.238432527e+00 6.981572455e-02 -1.945896475e+02 -5.332655342e+01 0.000000000e+00 0.000000000e+00 0.000000000e+00 0.000000000e+00
1.510000e+09 -1.238516153e+00 7.028608126e-02 -1.945259798e+02 -5.368582925e+01 0.000000000e+00 0.000000000e+00 0.000000000e+00 0.000000000e+00
1.520000e+09 -1.238600375e+00 7.075653498e-02 -1.944618578e+02 -5.404517955e+01 0.000000000e+00 0.000000000e+00 0.000000000e+00 0.000000000e+00
1.530000e+09 -1.238685195e+00 7.122708633e-02 -1.943972808e+02 -5.440460479e+01 0.000000000e+00 0.000000000e+00 0.000000000e+00 0.000000000e+00
1.540000e+09 -1.238770612e+00 7.169773592e-02 -1.943322483e+02 -5.476410542e+01 0.000000000e+00 0.000000000e+00 0.000000000e+00 0.000000000e+00
1.550000e+09 -1.238856629e+00 7.216848439e-02 -1.942667595e+02 -5.512368193e+01 0.000000000e+00 0.000000000e+00 0.000000000e+00 0.000000000e+00
1.560000e+09 -1.238943245e+00 7.263933235e-02 -1.942008139e+02 -5.548333477e+01 0.000000000e+00 0.000000000e+00 0.000000000e+00 0.000000000e+00
1.570000e+09 -1.239030461e+00 7.311028041e-02 -1.941344107e+02 -5.584306440e+01 0.000000000e+00 0.000000000e+00 0.000000000e+00 0.000000000e+00
1.580000e+09 -1.239118279e+00 7.358132920e-02 -1.940675493e+02 -5.620287129e+01 0.000000000e+00 0.000000000e+00 0.000000000e+00 0.000000000e+00
1.590000e+09 -1.239206699e+00 7.405247933e-02 -1.940002291e+02 -5.656275589e+01 0.000000000e+00 0.000000000e+00 0.000000000e+00 0.000000000e+00
1.600000e+09 -1.239295723e+00 7.452373141e-02 -1.939324493e+02 -5.692271868e+01 0.000000000e+00 0.000000000e+00 0.000000000e+00 0.000000000e+00
1.610000e+09 -1.239385350e+00 7.499508606e-02 -1.938642093e+02 -5.728276011e+01 0.000000000e+00 0.000000000e+00 0.000000000e+00 0.000000000e+00
1.620000e+09 -1.239475583e+00 7.546654390e-02 -1.937955084e+02 -5.764288064e+01 0.000000000e+00 0.000000000e+00 0.000000000e+00 0.000000000e+00
1.630000e+09 -1.239566421e+00 7.593810553e-02 -1.937263459e+02 -5.800308073e+01 0.000000000e+00 0.000000000e+00 0.000000000e+00 0.000000000e+00
1.640000e+09 -1.239657866e+00 7.640977157e-02 -1.936567211e+02 -5.836336083e+01 0.000000000e+00 0.000000000e+00 0.000000000e+00 0.000000000e+00
1.650000e+09 -1.239749919e+00 7.688154263e-02 -1.935866333e+02 -5.872372142e+01 0.000000000e+00 0.000000000e+00 0.000000000e+00 0.000000000e+00
1.660000e+09 -1.239842580e+00 7.735341933e-02 -1.935160818e+02 -5.908416294e+01 0.000000000e+00 0.000000000e+00 0.000000000e+00 0.000000000e+00
1.670000e+09 -1.239935850e+00 7.782540226e-02 -1.934450659e+02 -5.944468584e+01 0.000000000e+00 0.000000000e+00 0.000000000e+00 0.000000000e+00
1.680000e+09 -1.240029732e+00 7.829749204e-02 -1.933735850e+02 -5.980529060e+01 0.000000000e+00 0.000000000e+00 0.000000000e+00 0.000000000e+00
1.690000e+09 -1.240124224e+00 7.876968927e-02 -1.933016382e+02 -6.016597765e+01 0.000000000e+00 0.000000000e+00 0.000000000e+00 0.000000000e+00
1.700000e+09 -1.240219329e+00 7.924199457e-02 -1.932292248e+02 -6.052674746e+01 0.000000000e+00 0.000000000e+00 0.000000000e+00 0.000000000e+00
1.710000e+09 -1.240315047e+00 7.971440853e-02 -1.931563442e+02 -6.088760048e+01 0.000000000e+00 0.000000000e+00 0.000000000e+00 0.000000000e+00
1.720000e+09 -1.240411379e+00 8.018693176e-02 -1.930829955e+02 -6.124853715e+01 0.000000000e+00 0.000000000e+00 0.000000000e+00 0.000000000e+00
1.730000e+09 -1.240508327e+00 8.065956487e-02 -1.930091782e+02 -6.160955794e+01 0.000000000e+00 0.000000000e+00 0.000000000e+00 0.000000000e+00
1.740000e+09 -1.240605890e+00 8.113230845e-02 -1.929348913e+02 -6.197066329e+01 0.000000000e+00 0.000000000e+00 0.000000000e+00 0.000000000e+00
1.750000e+09 -1.240704071e+00 8.160516310e-02 -1.928601342e+02 -6.233185366e+01 0.000000000e+00 0.000000000e+00 0.000000000e+00 0.000000000e+00
1.760000e+09 -1.240802870e+00 8.207812942e-02 -1.927849061e+02 -6.269312949e+01 0.000000000e+00 0.000000000e+00 0.000000000e+00 0.000000000e+00
1.770000e+09 -1.240902288e+00 8.255120802e-02 -1.927092063e+02 -6.305449123e+01 0.000000000e+00 0.000000000e+00 0.000000000e+00 0.000000000e+00
1.780000e+09 -1.241002326e+00 8.302439949e-02 -1.926330339e+02 -6.341593934e+01 0.000000000e+00 0.000000000e+00 0.000000000e+00 0.000000000e+00
1.790000e+09 -1.241102986e+00 8.349770442e-02 -1.925563883e+02 -6.377747425e+01 0.000000000e+00 0.000000000e+00 0.000000000e+00 0.000000000e+00
1.800000e+09 -1.241204267e+00 8.397112340e-02 -1.924792687e+02 -6.413909641e+01 0.000000000e+00 0.000000000e+00 0.000000000e+00 0.000000000e+00
1.810000e+09 -1.241306172e+00 8.444465704e-02 -1.924016742e+02 -6.450080627e+01 0.000000000e+00 0.000000000e+00 0.000000000e+00 0.000000000e+00
1.820000e+09 -1.241408701e+00 8.491830592e-02 -1.923236041e+02 -6.486260428e+01 0.000000000e+00 0.000000000e+00 0.000000000e+00 0.000000000e+00
1.830000e+09 -1.241511855e+00 8.539207063e-02 -1.922450576e+02 -6.522449087e+01 0.000000000e+00 0.000000000e+00 0.000000000e+00 0.000000000e+00
1.840000e+09 -1.241615635e+00 8.586595176e-02 -1.921660340e+02 -6.558646650e+01 0.000000000e+00 0.000000000e+00 0.000000000e+00 0.000000000e+00
1.850000e+09 -1.241720043e+00 8.633994990e-02 -1.920865323e+02 -6.594853159e+01 0.000000000e+00 0.000000000e+00 0.000000000e+00 0.000000000e+00
1.860000e+09 -1.241825079e+00 8.681406564e-02 -1.920065519e+02 -6.631068660e+01 0.000000000e+00 0.000000000e+00 0.000000000e+00 0.000000000e+00
1.870000e+09 -1.241930745e+00 8.728829956e-02 -1.919260918e+02 -6.667293196e+01 0.000000000e+00 0.000000000e+00 0.000000000e+00 0.000000000e+00
1.880000e+09 -1.242037041e+00 8.776265223e-02 -1.918451514e+02 -6.703526812e+01 0.000000000e+00 0.000000000e+00 0.000000000e+00 0.000000000e+00
1.890000e+09 -1.242143969e+00 8.823712426e-02 -1.917637297e+02 -6.739769551e+01 0.000000000e+00 0.000000000e+00 0.000000000e+00 0.000000000e+00
1.900000e+09 -1.242251529e+00 8.871171620e-02 -1.916818260e+02 -6.776021456e+01 0.000000000e+00 0.000000000e+00 0.000000000e+00 0.000000000e+00
1.910000e+09 -1.242359723e+00 8.918642865e-02 -1.915994394e+02 -6.812282572e+01 0.000000000e+00 0.000000000e+00 0.000000000e+00 0.000000000e+00
1.920000e+09 -1.242468552e+00 8.966126218e-02 -1.915165691e+02 -6.848552943e+01 0.000000000e+00 0.000000000e+00 0.000000000e+00 0.000000000e+00
1.930000e+09 -1.242578017e+00 9.013621737e-02 -1.914332142e+02 -6.884832610e+01 0.000000000e+00 0.000000000e+00 0.000000000e+00 0.000000000e+00
1.940000e+09 -1.242688120e+00 9.061129479e-02 -1.913493740e+02 -6.921121619e+01 0.000000000e+00 0.000000000e+00 0.000000000e+00 0.000000000e+00
1.950000e+09 -1.242798860e+00 9.108649502e-02 -1.912650475e+02 -6.957420012e+01 0.000000000e+00 0.000000000e+00 0.000000000e+00 0.000000000e+00
1.960000e+09 -1.242910240e+00 9.156181862e-02 -1.911802339e+02 -6.993727832e+01 0.000000000e+00 0.000000000e+00 0.000000000e+00 0.000000000e+00
1.970000e+09 -1.243022260e+00 9.203726616e-02 -1.910949323e+02 -7.030045123e+01 0.000000000e+00 0.000000000e+00 0.000000000e+00 0.000000000e+00
1.980000e+09 -1.243134922e+00 9.251283822e-02 -1.910091419e+02 -7.066371928e+01 0.000000000e+00 0.000000000e+00 0.000000000e+00 0.000000000e+00
1.990000e+09 -1.243248226e+00 9.298853536e-02 -1.909228618e+02 -7.102708288e+01 0.000000000e+00 0.000000000e+00 0.000000000e+00 0.000000000e+00
2.000000e+09 -1.243362175e+00 9.346435814e-02 -1.908360911e+02 -7.139054248e+01 0.000000000e+00 0.000000000e+00 0.000000000e+00 0.000000000e+00
2.010000e+09 -1.243476769e+00 9.394030714e-02 -1.907488290e+02 -7.175409850e+01 0.000000000e+00 0.000000000e+00 0.000000000e+00 0.000000000e+00
2.020000e+09 -1.243592009e+00 9.441638290e-02 -1.906610745e+02 -7.211775136e+01 0.000000000e+00 0.000000000e+00 0.000000000e+00 0.000000000e+00
2.030000e+09 -1.243707896e+00 9.489258600e-02 -1.905728268e+02 -7.248150149e+01 0.000000000e+00 0.000000000e+00 0.000000000e+00 0.000000000e+00
2.040000e+09 -1.243824432e+00 9.536891699e-02 -1.904840850e+02 -7.284534931e+01 0.000000000e+00 0.000000000e+00 0.000000000e+00 0.000000000e+00
2.050000e+09 -1.243941618e+00 9.584537643e-02 -1.903948481e+02 -7.320929525e+01 0.000000000e+00 0.000000000e+00 0.000000000e+00 0.000000000e+00
2.060000e+09 -1.244059455e+00 9.632196487e-02 -1.903051153e+02 -7.357333972e+01 0.000000000e+00 0.000000000e+00 0.000000000e+00 0.000000000e+00
2.070000e+09 -1.244177944e+00 9.679868286e-02 -1.902148856e+02 -7.393748315e+01 0.000000000e+00 0.000000000e+00 0.000000000e+00 0.000000000e+00
2.080000e+09 -1.244297086e+00 9.727553097e-02 -1.901241582e+02 -7.430172596e+01 0.000000000e+00 0.000000000e+00 0.000000000e+00 0.000000000e+00
2.090000e+09 -1.244416883e+00 9.775250974e-02 -1.900329320e+02 -7.466606857e+01 0.000000000e+00 0.000000000e+00 0.000000000e+00 0.000000000e+00
2.100000e+09 -1.244537336e+00 9.822961971e-02 -1.899412062e+02 -7.503051139e+01 0.000000000e+00 0.000000000e+00 0.000000000e+00 0.000000000e+00
2.110000e+09 -1.244658446e+00 9.870686144e-02 -1.898489799e+02 -7.539505483e+01 0.000000000e+00 0.000000000e+00 0.000000000e+00 0.000000000e+00
2.120000e+09 -1.244780215e+00 9.918423548e-02 -1.897562520e+02 -7.575969933e+01 0.000000000e+00 0.000000000e+00 0.000000000e+00 0.000000000e+00
2.130000e+09 -1.244902643e+00 9.966174236e-02 -1.896630217e+02 -7.612444528e+01 0.000000000e+00 0.000000000e+00 0.000000000e+00 0.000000000e+00
2.140000e+09 -1.245025732e+00 1.001393826e-01 -1.895692880e+02 -7.648929310e+01 0.000000000e+00 0.000000000e+00 0.000000000e+00 0.000000000e+00
2.150000e+09 -1.245149483e+00 1.006171568e-01 -1.894750499e+02 -7.685424320e+01 0.000000000e+00 0.000000000e+00 0.000000000e+00 0.000000000e+00
2.160000e+09 -1.245273898e+00 1.010950655e-01 -1.893803065e+02 -7.721929600e+01 0.000000000e+00 0.000000000e+00 0.000000000e+00 0.000000000e+00
2.170000e+09 -1.245398977e+00 1.015731092e-01 -1.892850567e+02 -7.758445190e+01 0.000000000e+00 0.000000000e+00 0.000000000e+00 0.000000000e+00
2.180000e+09 -1.245524722e+00 1.020512884e-01 -1.891892998e+02 -7.794971131e+01 0.000000000e+00 0.000000000e+00 0.000000000e+00 0.000000000e+00
2.190000e+09 -1.245651134e+00 1.025296037e-01 -1.890930345e+02 -7.831507465e+01 0.000000000e+00 0.000000000e+00 0.000000000e+00 0.000000000e+00
2.200000e+09 -1.245778215e+00 1.030080556e-01 -1.889962600e+02 -7.868054230e+01 0.000000000e+00 0.000000000e+00 0.000000000e+00 0.000000000e+00
2.210000e+09 -1.245905966e+00 1.034866446e-01 -1.888989753e+02 -7.904611469e+01 0.000000000e+00 0.000000000e+00 0.000000000e+00 0.000000000e+00
2.220000e+09 -1.246034388e+00 1.039653713e-01 -1.888011794e+02 -7.941179221e+01 0.000000000e+00 0.000000000e+00 0.000000000e+00 0.000000000e+00
2.230000e+09 -1.246163482e+00 1.044442362e-01 -1.887028713e+02 -7.977757526e+01 0.000000000e+00 0.000000000e+00 0.000000000e+00 0.000000000e+00
2.240000e+09 -1.246293250e+00 1.049232399e-01 -1.886040499e+02 -8.014346426e+01 0.000000000e+00 0.000000000e+00 0.000000000e+00 0.000000000e+00
2.250000e+09 -1.246423694e+00 1.054023827e-01 -1.885047142e+02 -8.050945959e+01 0.000000000e+00 0.000000000e+00 0.000000000e+00 0.000000000e+00
2.260000e+09 -1.246554814e+00 1.058816654e-01 -1.884048633e+02 -8.087556166e+01 0.000000000e+00 0.000000000e+00 0.000000000e+00 0.000000000e+00
2.270000e+09 -1.246686611e+00 1.063610883e-01 -1.883044961e+02 -8.124177086e+01 0.000000000e+00 0.000000000e+00 0.000000000e+00 0.000000000e+00
2.280000e+09 -1.246819088e+00 1.068406520e-01 -1.882036116e+02 -8.160808759e+01 0.000000000e+00 0.000000000e+00 0.000000000e+00 0.000000000e+00
2.290000e+09 -1.246952246e+00 1.073203570e-01 -1.881022087e+02 -8.197451224e+01 0.000000000e+00 0.000000000e+00 0.000000000e+00 0.000000000e+00
2.300000e+09 -1.247086085e+00 1.078002039e-01 -1.880002864e+02 -8.234104522e+01 0.000000000e+00 0.000000000e+00 0.000000000e+00 0.000000000e+00
2.310000e+09 -1.247220608e+00 1.082801931e-01 -1.878978436e+02 -8.270768691e+01 0.000000000e+00 0.000000000e+00 0.000000000e+00 0.000000000e+00
2.320000e+09 -1.247355816e+00 1.087603252e-01 -1.877948794e+02 -8.307443770e+01 0.000000000e+00 0.000000000e+00 0.000000000e+00 0.000000000e+00
2.330000e+09 -1.247491709e+00 1.092406006e-01 -1.876913925e+02 -8.344129798e+01 0.000000000e+00 0.000000000e+00 0.000000000e+00 0.000000000e+00
2.340000e+09 -1.247628290e+00 1.097210200e-01 -1.875873821e+02 -8.380826815e+01 0.000000000e+00 0.000000000e+00 0.000000000e+00 0.000000000e+00
2.350000e+09 -1.247765561e+00 1.102015837e-01 -1.874828469e+02 -8.417534858e+01 0.000000000e+00 0.000000000e+00 0.000000000e+00 0.000000000e+00
2.360000e+09 -1.247903521e+00 1.106822922e-01 -1.873777859e+02 -8.454253967e+01 0.000000000e+00 0.000000000e+00 0.000000000e+00 0.000000000e+00
2.370000e+09 -1.248042173e+00 1.111631462e-01 -1.872721981e+02 -8.490984180e+01 0.000000000e+00 0.000000000e+00 0.000000000e+00 0.000000000e+00
2.380000e+09 -1.248181519e+00 1.116441461e-01 -1.871660823e+02 -8.527725536e+01 0.000000000e+00 0.000000000e+00 0.000000000e+00 0.000000000e+00
2.390000e+09 -1.248321559e+00 1.121252923e-01 -1.870594374e+02 -8.564478072e+01 0.000000000e+00 0.000000000e+00 0.000000000e+00 0.000000000e+00
2.400000e+09 -1.248462296e+00 1.126065854e-01 -1.869522624e+02 -8.601241826e+01 0.000000000e+00 0.000000000e+00 0.000000000e+00 0.000000000e+00
2.410000e+09 -1.248603729e+00 1.130880259e-01 -1.868445561e+02 -8.638016837e+01 0.000000000e+00 0.000000000e+00 0.000000000e+00 0.000000000e+00
2.420000e+09 -1.248745862e+00 1.135696143e-01 -1.867363174e+02 -8.674803143e+01 0.000000000e+00 0.000000000e+00 0.000000000e+00 0.000000000e+00
2.430000e+09 -1.248888696e+00 1.140513510e-01 -1.866275453e+02 -8.711600780e+01 0.000000000e+00 0.000000000e+00 0.000000000e+00 0.000000000e+00
2.440000e+09 -1.249032231e+00 1.145332365e-01 -1.865182385e+02 -8.748409787e+01 0.000000000e+00 0.000000000e+00 0.000000000e+00 0.000000000e+00
2.450000e+09 -1.249176470e+00 1.150152714e-01 -1.864083959e+02 -8.785230201e+01 0.000000000e+00 0.000000000e+00 0.000000000e+00 0.000000000e+00
2.460000e+09 -1.249321414e+00 1.154974561e-01 -1.862980164e+02 -8.822062059e+01 0.000000000e+00 0.000000000e+00 0.000000000e+00 0.000000000e+00
2.470000e+09 -1.249467065e+00 1.159797911e-01 -1.861870989e+02 -8.858905398e+01 0.000000000e+00 0.000000000e+00 0.000000000e+00 0.000000000e+00
2.480000e+09 -1.249613423e+00 1.164622768e-01 -1.860756422e+02 -8.895760255e+01 0.000000000e+00 0.000000000e+00 0.000000000e+00 0.000000000e+00
2.490000e+09 -1.249760492e+00 1.169449139e-01 -1.859636452e+02 -8.932626666e+01 0.000000000e+00 0.000000000e+00 0.000000000e+00 0.000000000e+00
2.500000e+09 -1.249908271e+00 1.174277026e-01 -1.858511066e+02 -8.969504669e+01 0.000000000e+00 0.000000000e+00 0.000000000e+00 0.000000000e+00
2.510000e+09 -1.250056763e+00 1.179106435e-01 -1.857380253e+02 -9.006394300e+01 0.000000000e+00 0.000000000e+00 0.000000000e+00 0.000000000e+00
2.520000e+09 -1.250205969e+00 1.183937372e-01 -1.856244001e+02 -9.043295595e+01 0.000000000e+00 0.000000000e+00 0.000000000e+00 0.000000000e+00
2.530000e+09 -1.250355890e+00 1.188769839e-01 -1.855102299e+02 -9.080208590e+01 0.000000000e+00 0.000000000e+00 0.000000000e+00 0.000000000e+00
2.540000e+09 -1.250506529e+00 1.193603843e-01 -1.853955135e+02 -9.117133321e+01 0.000000000e+00 0.000000000e+00 0.000000000e+00 0.000000000e+00
2.550000e+09 -1.250657887e+00 1.198439388e-01 -1.852802496e+02 -9.154069825e+01 0.000000000e+00 0.000000000e+00 0.000000000e+00 0.000000000e+00
2.560000e+09 -1.250809965e+00 1.203276477e-01 -1.851644371e+02 -9.191018136e+01 0.000000000e+00 0.000000000e+00 0.000000000e+00 0.000000000e+00
2.570000e+09 -1.250962766e+00 1.208115117e-01 -1.850480748e+02 -9.227978290e+01 0.000000000e+00 0.000000000e+00 0.000000000e+00 0.000000000e+00
2.580000e+09 -1.251116290e+00 1.212955312e-01 -1.849311614e+02 -9.264950323e+01 0.000000000e+00 0.000000000e+00 0.000000000e+00 0.000000000e+00
2.590000e+09 -1.251270539e+00 1.217797065e-01 -1.848136957e+02 -9.301934269e+01 0.000000000e+00 0.000000000e+00 0.000000000e+00 0.000000000e+00
2.600000e+09 -1.251425515e+00 1.222640382e-01 -1.846956764e+02 -9.338930164e+01 0.000000000e+00 0.000000000e+00 0.000000000e+00 0.000000000e+00
2.610000e+09 -1.251581220e+00 1.227485267e-01 -1.845771025e+02 -9.375938042e+01 0.000000000e+00 0.000000000e+00 0.000000000e+00 0.000000000e+00
2.620000e+09 -1.251737654e+00 1.232331725e-01 -1.844579725e+02 -9.412957938e+01 0.000000000e+00 0.000000000e+00 0.000000000e+00 0.000000000e+00
2.630000e+09 -1.251894821e+00 1.237179760e-01 -1.843382854e+02 -9.449989887e+01 0.000000000e+00 0.000000000e+00 0.000000000e+00 0.000000000e+00
2.640000e+09 -1.252052721e+00 1.242029377e-01 -1.842180397e+02 -9.487033923e+01 0.000000000e+00 0.000000000e+00 0.000000000e+00 0.000000000e+00
2.650000e+09 -1.252211356e+00 1.246880579e-01 -1.840972343e+02 -9.524090079e+01 0.000000000e+00 0.000000000e+00 0.000000000e+00 0.000000000e+00
2.660000e+09 -1.252370727e+00 1.251733372e-01 -1.839758678e+02 -9.561158390e+01 0.000000000e+00 0.000000000e+00 0.000000000e+00 0.000000000e+00
2.670000e+09 -1.252530837e+00 1.256587760e-01 -1.838539391e+02 -9.598238889e+01 0.000000000e+00 0.000000000e+00 0.000000000e+00 0.000000000e+00
2.680000e+09 -1.252691688e+00 1.261443747e-01 -1.837314468e+02 -9.635331611e+01 0.000000000e+00 0.000000000e+00 0.000000000e+00 0.000000000e+00
2.690000e+09 -1.252853280e+00 1.266301337e-01 -1.836083896e+02 -9.672436587e+01 0.000000000e+00 0.000000000e+00 0.000000000e+00 0.000000000e+00
2.700000e+09 -1.253015615e+00 1.271160534e-01 -1.834847663e+02 -9.709553853e+01 0.000000000e+00 0.000000000e+00 0.000000000e+00 0.000000000e+00
2.710000e+09 -1.253178696e+00 1.276021344e-01 -1.833605755e+02 -9.746683439e+01 0.000000000e+00 0.000000000e+00 0.000000000e+00 0.000000000e+00
2.720000e+09 -1.253342523e+00 1.280883769e-01 -1.832358160e+02 -9.783825379e+01 0.000000000e+00 0.000000000e+00 0.000000000e+00 0.000000000e+00
2.730000e+09 -1.253507099e+00 1.285747815e-01 -1.831104864e+02 -9.820979707e+01 0.000000000e+00 0.000000000e+00 0.000000000e+00 0.000000000e+00
2.740000e+09 -1.253672426e+00 1.290613486e-01 -1.829845854e+02 -9.858146453e+01 0.000000000e+00 0.000000000e+00 0.000000000e+00 0.000000000e+00
2.750000e+09 -1.253838505e+00 1.295480785e-01 -1.828581116e+02 -9.895325650e+01 0.000000000e+00 0.000000000e+00 0.000000000e+00 0.000000000e+00
2.760000e+09 -1.254005337e+00 1.300349717e-01 -1.827310638e+02 -9.932517331e+01 0.000000000e+00 0.000000000e+00 0.000000000e+00 0.000000000e+00
2.770000e+09 -1.254172926e+00 1.305220286e-01 -1.826034405e+02 -9.969721526e+01 0.000000000e+00 0.000000000e+00 0.000000000e+00 0.000000000e+00
2.780000e+09 -1.254341271e+00 1.310092496e-01 -1.824752405e+02 -1.000693827e+02 0.000000000e+00 0.000000000e+00 0.000000000e+00 0.000000000e+00
2.790000e+09 -1.254510376e+00 1.314966352e-01 -1.823464624e+02 -1.004416759e+02 0.000000000e+00 0.000000000e+00 0.000000000e+00 0.000000000e+00
2.800000e+09 -1.254680242e+00 1.319841856e-01 -1.822171049e+02 -1.008140951e+02 0.000000000e+00 0.000000000e+00 0.000000000e+00 0.000000000e+00
2.810000e+09 -1.254850871e+00 1.324719013e-01 -1.820871664e+02 -1.011866408e+02 0.000000000e+00 0.000000000e+00 0.000000000e+00 0.000000000e+00
2.820000e+09 -1.255022264e+00 1.329597827e-01 -1.819566458e+02 -1.015593132e+02 0.000000000e+00 0.000000000e+00 0.000000000e+00 0.000000000e+00
2.830000e+09 -1.255194424e+00 1.334478302e-01 -1.818255415e+02 -1.019321126e+02 0.000000000e+00 0.000000000e+00 0.000000000e+00 0.000000000e+00
2.840000e+09 -1.255367352e+00 1.339360442e-01 -1.816938522e+02 -1.023050393e+02 0.000000000e+00 0.000000000e+00 0.000000000e+00 0.000000000e+00
2.850000e+09 -1.255541050e+00 1.344244251e-01 -1.815615766e+02 -1.026780936e+02 0.000000000e+00 0.000000000e+00 0.000000000e+00 0.000000000e+00
2.860000e+09 -1.255715519e+00 1.349129732e-01 -1.814287131e+02 -1.030512758e+02 0.000000000e+00 0.000000000e+00 0.000000000e+00 0.000000000e+00
2.870000e+09 -1.255890763e+00 1.354016889e-01 -1.812952604e+02 -1.034245862e+02 0.000000000e+00 0.000000000e+00 0.000000000e+00 0.000000000e+00
2.880000e+09 -1.256066783e+00 1.358905727e-01 -1.811612171e+02 -1.037980251e+02 0.000000000e+00 0.000000000e+00 0.000000000e+00 0.000000000e+00
2.890000e+09 -1.256243579e+00 1.363796249e-01 -1.810265817e+02 -1.041715928e+02 0.000000000e+00 0.000000000e+00 0.000000000e+00 0.000000000e+00
2.900000e+09 -1.256421156e+00 1.368688458e-01 -1.808913528e+02 -1.045452895e+02 0.000000000e+00 0.000000000e+00 0.000000000e+00 0.000000000e+00
2.910000e+09 -1.256599513e+00 1.373582358e-01 -1.807555290e+02 -1.049191157e+02 0.000000000e+00 0.000000000e+00 0.000000000e+00 0.000000000e+00
2.920000e+09 -1.256778654e+00 1.378477954e-01 -1.806191087e+02 -1.052930714e+02 0.000000000e+00 0.000000000e+00 0.000000000e+00 0.000000000e+00
2.930000e+09 -1.256958580e+00 1.383375248e-01 -1.804820907e+02 -1.056671571e+02 0.000000000e+00 0.000000000e+00 0.000000000e+00 0.000000000e+00
2.940000e+09 -1.257139293e+00 1.388274244e-01 -1.803444733e+02 -1.060413730e+02 0.000000000e+00 0.000000000e+00 0.000000000e+00 0.000000000e+00
2.950000e+09 -1.257320795e+00 1.393174946e-01 -1.802062551e+02 -1.064157193e+02 0.000000000e+00 0.000000000e+00 0.000000000e+00 0.000000000e+00
2.960000e+09 -1.257503088e+00 1.398077358e-01 -1.800674347e+02 -1.067901964e+02 0.000000000e+00 0.000000000e+00 0.000000000e+00 0.000000000e+00
2.970000e+09 -1.257686173e+00 1.402981482e-01 -1.799280106e+02 -1.071648045e+02 0.000000000e+00 0.000000000e+00 0.000000000e+00 0.000000000e+00
2.980000e+09 -1.257870054e+00 1.407887322e-01 -1.797879812e+02 -1.075395440e+02 0.000000000e+00 0.000000000e+00 0.000000000e+00 0.000000000e+00
2.990000e+09 -1.258054731e+00 1.412794882e-01 -1.796473451e+02 -1.079144149e+02 0.000000000e+00 0.000000000e+00 0.000000000e+00 0.000000000e+00
3.000000e+09 -1.258240207e+00 1.417704165e-01 -1.795061007e+02 -1.082894177e+02 0.000000000e+00 0.000000000e+00 0.000000000e+00 0.000000000e+00
