! rfsim (KiCad + openEMS)
# HZ S RI R 50
5.000000e+08 -2.782983891e-01 -1.083470013e-03 -8.890071681e+00 -3.772636740e-01 -4.268810449e-02 7.836542709e-04 -8.900144187e-01 -3.809258417e-02
5.100000e+08 -2.782957550e-01 -1.105043767e-03 -8.889164743e+00 -3.847761122e-01 -4.268845450e-02 7.993694279e-04 -8.899972417e-01 -3.885648636e-02
5.200000e+08 -2.782930688e-01 -1.126611840e-03 -8.888239898e+00 -3.922865996e-01 -4.268881153e-02 8.150870895e-04 -8.899797206e-01 -3.962051063e-02
5.300000e+08 -2.782903307e-01 -1.148174119e-03 -8.887297148e+00 -3.997950978e-01 -4.268917556e-02 8.308073053e-04 -8.899618553e-01 -4.038465939e-02
5.400000e+08 -2.782875405e-01 -1.169730494e-03 -8.886336496e+00 -4.073015686e-01 -4.268954662e-02 8.465301250e-04 -8.899436454e-01 -4.114893505e-02
5.500000e+08 -2.782846984e-01 -1.191280854e-03 -8.885357946e+00 -4.148059736e-01 -4.268992471e-02 8.622555983e-04 -8.899250908e-01 -4.191334005e-02
5.600000e+08 -2.782818044e-01 -1.212825086e-03 -8.884361501e+00 -4.223082747e-01 -4.269030982e-02 8.779837748e-04 -8.899061912e-01 -4.267787680e-02
5.700000e+08 -2.782788583e-01 -1.234363079e-03 -8.883347164e+00 -4.298084335e-01 -4.269070197e-02 8.937147044e-04 -8.898869464e-01 -4.344254773e-02
5.800000e+08 -2.782758603e-01 -1.255894723e-03 -8.882314939e+00 -4.373064117e-01 -4.269110116e-02 9.094484369e-04 -8.898673560e-01 -4.420735527e-02
5.900000e+08 -2.782728104e-01 -1.277419905e-03 -8.881264828e+00 -4.448021710e-01 -4.269150740e-02 9.251850220e-04 -8.898474199e-01 -4.497230185e-02
6.000000e+08 -2.782697085e-01 -1.298938514e-03 -8.880196835e+00 -4.522956733e-01 -4.269192068e-02 9.409245096e-04 -8.898271378e-01 -4.573738989e-02
6.100000e+08 -2.782665548e-01 -1.320450440e-03 -8.879110965e+00 -4.597868800e-01 -4.269234102e-02 9.566669496e-04 -8.898065093e-01 -4.650262183e-02
6.200000e+08 -2.782633491e-01 -1.341955570e-03 -8.878007219e+00 -4.672757531e-01 -4.269276843e-02 9.724123919e-04 -8.897855343e-01 -4.726800009e-02
6.300000e+08 -2.782600915e-01 -1.363453793e-03 -8.876885603e+00 -4.747622541e-01 -4.269320290e-02 9.881608865e-04 -8.897642125e-01 -4.803352713e-02
6.400000e+08 -2.782567820e-01 -1.384944998e-03 -8.875746119e+00 -4.822463448e-01 -4.269364445e-02 1.003912483e-03 -8.897425435e-01 -4.879920536e-02
6.500000e+08 -2.782534207e-01 -1.406429073e-03 -8.874588772e+00 -4.897279869e-01 -4.269409307e-02 1.019667233e-03 -8.897205272e-01 -4.956503723e-02
6.600000e+08 -2.782500075e-01 -1.427905908e-03 -8.873413565e+00 -4.972071421e-01 -4.269454878e-02 1.035425184e-03 -8.896981631e-01 -5.033102519e-02
6.700000e+08 -2.782465425e-01 -1.449375390e-03 -8.872220503e+00 -5.046837721e-01 -4.269501158e-02 1.051186388e-03 -8.896754511e-01 -5.109717167e-02
6.800000e+08 -2.782430256e-01 -1.470837409e-03 -8.871009588e+00 -5.121578385e-01 -4.269548148e-02 1.066950895e-03 -8.896523907e-01 -5.186347911e-02
6.900000e+08 -2.782394569e-01 -1.492291853e-03 -8.869780826e+00 -5.196293032e-01 -4.269595848e-02 1.082718755e-03 -8.896289817e-01 -5.262994997e-02
7.000000e+08 -2.782358364e-01 -1.513738610e-03 -8.868534219e+00 -5.270981277e-01 -4.269644259e-02 1.098490017e-03 -8.896052239e-01 -5.339658669e-02
7.100000e+08 -2.782321640e-01 -1.535177570e-03 -8.867269773e+00 -5.345642738e-01 -4.269693381e-02 1.114264733e-03 -8.895811168e-01 -5.416339173e-02
7.200000e+08 -2.782284399e-01 -1.556608620e-03 -8.865987492e+00 -5.420277031e-01 -4.269743216e-02 1.130042953e-03 -8.895566601e-01 -5.493036752e-02
7.300000e+08 -2.782246640e-01 -1.578031651e-03 -8.864687379e+00 -5.494883774e-01 -4.269793764e-02 1.145824726e-03 -8.895318536e-01 -5.569751654e-02
7.400000e+08 -2.782208364e-01 -1.599446549e-03 -8.863369439e+00 -5.569462583e-01 -4.269845026e-02 1.161610104e-03 -8.895066969e-01 -5.646484123e-02
7.500000e+08 -2.782169570e-01 -1.620853204e-03 -8.862033676e+00 -5.644013075e-01 -4.269897001e-02 1.177399137e-03 -8.894811896e-01 -5.723234405e-02
7.600000e+08 -2.782130258e-01 -1.642251505e-03 -8.860680095e+00 -5.718534867e-01 -4.269949692e-02 1.193191875e-03 -8.894553315e-01 -5.800002747e-02
7.700000e+08 -2.782090429e-01 -1.663641341e-03 -8.859308700e+00 -5.793027576e-01 -4.270003099e-02 1.208988369e-03 -8.894291221e-01 -5.876789394e-02
7.800000e+08 -2.782050084e-01 -1.685022599e-03 -8.857919497e+00 -5.867490819e-01 -4.270057221e-02 1.224788669e-03 -8.894025612e-01 -5.953594593e-02
7.900000e+08 -2.782009221e-01 -1.706395168e-03 -8.856512488e+00 -5.941924211e-01 -4.270112061e-02 1.240592827e-03 -8.893756484e-01 -6.030418591e-02
8.000000e+08 -2.781967841e-01 -1.727758938e-03 -8.855087680e+00 -6.016327371e-01 -4.270167619e-02 1.256400892e-03 -8.893483833e-01 -6.107261634e-02
8.100000e+08 -2.781925945e-01 -1.749113797e-03 -8.853645076e+00 -6.090699915e-01 -4.270223895e-02 1.272212915e-03 -8.893207656e-01 -6.184123971e-02
8.200000e+08 -2.781883532e-01 -1.770459633e-03 -8.852184682e+00 -6.165041460e-01 -4.270280891e-02 1.288028948e-03 -8.892927948e-01 -6.261005847e-02
8.300000e+08 -2.781840603e-01 -1.791796336e-03 -8.850706502e+00 -6.239351621e-01 -4.270338606e-02 1.303849040e-03 -8.892644707e-01 -6.337907512e-02
8.400000e+08 -2.781797158e-01 -1.813123793e-03 -8.849210542e+00 -6.313630017e-01 -4.270397043e-02 1.319673243e-03 -8.892357928e-01 -6.414829212e-02
8.500000e+08 -2.781753196e-01 -1.834441894e-03 -8.847696806e+00 -6.387876263e-01 -4.270456201e-02 1.335501608e-03 -8.892067608e-01 -6.491771196e-02
8.600000e+08 -2.781708719e-01 -1.855750528e-03 -8.846165299e+00 -6.462089976e-01 -4.270516081e-02 1.351334186e-03 -8.891773743e-01 -6.568733712e-02
8.700000e+08 -2.781663725e-01 -1.877049582e-03 -8.844616027e+00 -6.536270773e-01 -4.270576685e-02 1.367171027e-03 -8.891476328e-01 -6.645717009e-02
8.800000e+08 -2.781618216e-01 -1.898338946e-03 -8.843048995e+00 -6.610418270e-01 -4.270638013e-02 1.383012183e-03 -8.891175360e-01 -6.722721336e-02
8.900000e+08 -2.781572192e-01 -1.919618508e-03 -8.841464207e+00 -6.684532084e-01 -4.270700065e-02 1.398857705e-03 -8.890870836e-01 -6.799746941e-02
9.000000e+08 -2.781525652e-01 -1.940888157e-03 -8.839861669e+00 -6.758611832e-01 -4.270762843e-02 1.414707644e-03 -8.890562750e-01 -6.876794074e-02
9.100000e+08 -2.781478597e-01 -1.962147781e-03 -8.838241387e+00 -6.832657129e-01 -4.270826348e-02 1.430562051e-03 -8.890251098e-01 -6.953862985e-02
9.200000e+08 -2.781431027e-01 -1.983397270e-03 -8.836603365e+00 -6.906667593e-01 -4.270890580e-02 1.446420978e-03 -8.889935878e-01 -7.030953924e-02
9.300000e+08 -2.781382943e-01 -2.004636512e-03 -8.834947610e+00 -6.980642841e-01 -4.270955540e-02 1.462284475e-03 -8.889617083e-01 -7.108067140e-02
9.400000e+08 -2.781334343e-01 -2.025865396e-03 -8.833274127e+00 -7.054582487e-01 -4.271021229e-02 1.478152595e-03 -8.889294711e-01 -7.185202884e-02
9.500000e+08 -2.781285229e-01 -2.047083810e-03 -8.831582921e+00 -7.128486149e-01 -4.271087649e-02 1.494025388e-03 -8.888968756e-01 -7.262361407e-02
9.600000e+08 -2.781235601e-01 -2.068291643e-03 -8.829873998e+00 -7.202353444e-01 -4.271154799e-02 1.509902906e-03 -8.888639215e-01 -7.339542960e-02
9.700000e+08 -2.781185458e-01 -2.089488784e-03 -8.828147363e+00 -7.276183987e-01 -4.271222680e-02 1.525785201e-03 -8.888306082e-01 -7.416747793e-02
9.800000e+08 -2.781134802e-01 -2.110675122e-03 -8.826403024e+00 -7.349977396e-01 -4.271291295e-02 1.541672324e-03 -8.887969355e-01 -7.493976159e-02
9.900000e+08 -2.781083632e-01 -2.131850544e-03 -8.824640985e+00 -7.423733285e-01 -4.271360643e-02 1.557564327e-03 -8.887629027e-01 -7.571228309e-02
1.000000e+09 -2.781031948e-01 -2.153014941e-03 -8.822861252e+00 -7.497451273e-01 -4.271430725e-02 1.573461262e-03 -8.887285094e-01 -7.648504496e-02
1.010000e+09 -2.780979750e-01 -2.174168200e-03 -8.821063831e+00 -7.571130974e-01 -4.271501543e-02 1.589363180e-03 -8.886937553e-01 -7.725804971e-02
1.020000e+09 -2.780927039e-01 -2.195310211e-03 -8.819248728e+00 -7.644772006e-01 -4.271573097e-02 1.605270133e-03 -8.886586397e-01 -7.803129988e-02
1.030000e+09 -2.780873816e-01 -2.216440861e-03 -8.817415950e+00 -7.718373984e-01 -4.271645389e-02 1.621182173e-03 -8.886231623e-01 -7.880479799e-02
1.040000e+09 -2.780820079e-01 -2.237560041e-03 -8.815565503e+00 -7.791936525e-01 -4.271718419e-02 1.637099353e-03 -8.885873226e-01 -7.957854657e-02
1.050000e+09 -2.780765829e-01 -2.258667637e-03 -8.813697392e+00 -7.865459245e-01 -4.271792188e-02 1.653021724e-03 -8.885511200e-01 -8.035254817e-02
1.060000e+09 -2.780711067e-01 -2.279763540e-03 -8.811811624e+00 -7.938941760e-01 -4.271866698e-02 1.668949337e-03 -8.885145542e-01 -8.112680531e-02
1.070000e+09 -2.780655793e-01 -2.300847638e-03 -8.809908206e+00 -8.012383687e-01 -4.271941948e-02 1.684882247e-03 -8.884776246e-01 -8.190132055e-02
1.080000e+09 -2.780600006e-01 -2.321919819e-03 -8.807987143e+00 -8.085784641e-01 -4.272017941e-02 1.700820504e-03 -8.884403306e-01 -8.267609643e-02
1.090000e+09 -2.780543707e-01 -2.342979973e-03 -8.806048442e+00 -8.159144238e-01 -4.272094678e-02 1.716764160e-03 -8.884026719e-01 -8.345113549e-02
1.100000e+09 -2.780486897e-01 -2.364027988e-03 -8.804092111e+00 -8.232462096e-01 -4.272172158e-02 1.732713269e-03 -8.883646479e-01 -8.422644028e-02
1.110000e+09 -2.780429575e-01 -2.385063752e-03 -8.802118154e+00 -8.305737829e-01 -4.272250384e-02 1.748667883e-03 -8.883262580e-01 -8.500201337e-02
1.120000e+09 -2.780371741e-01 -2.406087155e-03 -8.800126580e+00 -8.378971054e-01 -4.272329357e-02 1.764628054e-03 -8.882875019e-01 -8.577785731e-02
1.130000e+09 -2.780313397e-01 -2.427098085e-03 -8.798117394e+00 -8.452161387e-01 -4.272409077e-02 1.780593834e-03 -8.882483788e-01 -8.655397465e-02
1.140000e+09 -2.780254541e-01 -2.448096431e-03 -8.796090603e+00 -8.525308444e-01 -4.272489546e-02 1.796565277e-03 -8.882088884e-01 -8.733036797e-02
1.150000e+09 -2.780195174e-01 -2.469082082e-03 -8.794046215e+00 -8.598411840e-01 -4.272570764e-02 1.812542434e-03 -8.881690301e-01 -8.810703983e-02
1.160000e+09 -2.780135297e-01 -2.490054926e-03 -8.791984237e+00 -8.671471193e-01 -4.272652733e-02 1.828525359e-03 -8.881288034e-01 -8.888399280e-02
1.170000e+09 -2.780074910e-01 -2.511014852e-03 -8.789904674e+00 -8.744486117e-01 -4.272735454e-02 1.844514105e-03 -8.880882076e-01 -8.966122946e-02
1.180000e+09 -2.780014012e-01 -2.531961749e-03 -8.787807535e+00 -8.817456229e-01 -4.272818928e-02 1.860508725e-03 -8.880472423e-01 -9.043875238e-02
1.190000e+09 -2.779952604e-01 -2.552895506e-03 -8.785692826e+00 -8.890381145e-01 -4.272903156e-02 1.876509270e-03 -8.880059069e-01 -9.121656415e-02
1.200000e+09 -2.779890687e-01 -2.573816011e-03 -8.783560555e+00 -8.963260480e-01 -4.272988139e-02 1.892515796e-03 -8.879642008e-01 -9.199466736e-02
1.210000e+09 -2.779828260e-01 -2.594723153e-03 -8.781410728e+00 -9.036093851e-01 -4.273073879e-02 1.908528353e-03 -8.879221235e-01 -9.277306458e-02
1.220000e+09 -2.779765324e-01 -2.615616821e-03 -8.779243353e+00 -9.108880872e-01 -4.273160376e-02 1.924546997e-03 -8.878796744e-01 -9.355175841e-02
1.230000e+09 -2.779701878e-01 -2.636496904e-03 -8.777058438e+00 -9.181621161e-01 -4.273247632e-02 1.940571779e-03 -8.878368529e-01 -9.433075145e-02
1.240000e+09 -2.779637924e-01 -2.657363290e-03 -8.774855990e+00 -9.254314332e-01 -4.273335648e-02 1.956602754e-03 -8.877936585e-01 -9.511004630e-02
1.250000e+09 -2.779573461e-01 -2.678215868e-03 -8.772636016e+00 -9.326960002e-01 -4.273424425e-02 1.972639975e-03 -8.877500905e-01 -9.588964556e-02
1.260000e+09 -2.779508490e-01 -2.699054526e-03 -8.770398524e+00 -9.399557786e-01 -4.273513964e-02 1.988683495e-03 -8.877061484e-01 -9.666955183e-02
1.270000e+09 -2.779443010e-01 -2.719879155e-03 -8.768143521e+00 -9.472107300e-01 -4.273604267e-02 2.004733367e-03 -8.876618316e-01 -9.744976774e-02
1.280000e+09 -2.779377023e-01 -2.740689641e-03 -8.765871015e+00 -9.544608159e-01 -4.273695335e-02 2.020789646e-03 -8.876171394e-01 -9.823029588e-02
1.290000e+09 -2.779310527e-01 -2.761485875e-03 -8.763581015e+00 -9.617059980e-01 -4.273787168e-02 2.036852386e-03 -8.875720713e-01 -9.901113888e-02
1.300000e+09 -2.779243524e-01 -2.782267744e-03 -8.761273527e+00 -9.689462378e-01 -4.273879769e-02 2.052921639e-03 -8.875266266e-01 -9.979229937e-02
1.310000e+09 -2.779176014e-01 -2.803035138e-03 -8.758948560e+00 -9.761814969e-01 -4.273973139e-02 2.068997460e-03 -8.874808048e-01 -1.005737800e-01
1.320000e+09 -2.779107997e-01 -2.823787945e-03 -8.756606121e+00 -9.834117367e-01 -4.274067278e-02 2.085079903e-03 -8.874346052e-01 -1.013555833e-01
1.330000e+09 -2.779039472e-01 -2.844526054e-03 -8.754246219e+00 -9.906369189e-01 -4.274162188e-02 2.101169022e-03 -8.873880271e-01 -1.021377120e-01
1.340000e+09 -2.778970442e-01 -2.865249354e-03 -8.751868861e+00 -9.978570051e-01 -4.274257871e-02 2.117264871e-03 -8.873410699e-01 -1.029201687e-01
1.350000e+09 -2.778900904e-01 -2.885957734e-03 -8.749474057e+00 -1.005071957e+00 -4.274354327e-02 2.133367504e-03 -8.872937331e-01 -1.037029561e-01
1.360000e+09 -2.778830861e-01 -2.906651081e-03 -8.747061813e+00 -1.012281735e+00 -4.274451559e-02 2.149476976e-03 -8.872460159e-01 -1.044860767e-01
1.370000e+09 -2.778760312e-01 -2.927329286e-03 -8.744632138e+00 -1.019486303e+00 -4.274549566e-02 2.165593340e-03 -8.871979177e-01 -1.052695333e-01
1.380000e+09 -2.778689257e-01 -2.947992237e-03 -8.742185041e+00 -1.026685620e+00 -4.274648352e-02 2.181716652e-03 -8.871494378e-01 -1.060533285e-01
1.390000e+09 -2.778617697e-01 -2.968639822e-03 -8.739720530e+00 -1.033879649e+00 -4.274747916e-02 2.197846966e-03 -8.871005756e-01 -1.068374650e-01
1.400000e+09 -2.778545632e-01 -2.989271930e-03 -8.737238614e+00 -1.041068351e+00 -4.274848261e-02 2.213984336e-03 -8.870513303e-01 -1.076219453e-01
1.410000e+09 -2.778473062e-01 -3.009888451e-03 -8.734739300e+00 -1.048251689e+00 -4.274949387e-02 2.230128818e-03 -8.870017014e-01 -1.084067723e-01
1.420000e+09 -2.778399987e-01 -3.030489272e-03 -8.732222598e+00 -1.055429622e+00 -4.275051297e-02 2.246280465e-03 -8.869516882e-01 -1.091919485e-01
1.430000e+09 -2.778326408e-01 -3.051074283e-03 -8.729688516e+00 -1.062602113e+00 -4.275153991e-02 2.262439334e-03 -8.869012899e-01 -1.099774767e-01
1.440000e+09 -2.778252324e-01 -3.071643372e-03 -8.727137063e+00 -1.069769124e+00 -4.275257471e-02 2.278605478e-03 -8.868505058e-01 -1.107633594e-01
1.450000e+09 -2.778177737e-01 -3.092196428e-03 -8.724568248e+00 -1.076930615e+00 -4.275361738e-02 2.294778954e-03 -8.867993353e-01 -1.115495995e-01
1.460000e+09 -2.778102646e-01 -3.112733340e-03 -8.721982080e+00 -1.084086549e+00 -4.275466794e-02 2.310959815e-03 -8.867477777e-01 -1.123361995e-01
1.470000e+09 -2.778027052e-01 -3.133253997e-03 -8.719378567e+00 -1.091236887e+00 -4.275572641e-02 2.327148119e-03 -8.866958322e-01 -1.131231622e-01
1.480000e+09 -2.777950955e-01 -3.153758287e-03 -8.716757719e+00 -1.098381590e+00 -4.275679279e-02 2.343343919e-03 -8.866434981e-01 -1.139104903e-01
1.490000e+09 -2.777874355e-01 -3.174246099e-03 -8.714119545e+00 -1.105520621e+00 -4.275786710e-02 2.359547271e-03 -8.865907748e-01 -1.146981865e-01
1.500000e+09 -2.777797252e-01 -3.194717321e-03 -8.711464053e+00 -1.112653939e+00 -4.275894936e-02 2.375758231e-03 -8.865376614e-01 -1.154862535e-01
1.510000e+09 -2.777719647e-01 -3.215171844e-03 -8.708791253e+00 -1.119781508e+00 -4.276003958e-02 2.391976854e-03 -8.864841573e-01 -1.162746939e-01
1.520000e+09 -2.777641540e-01 -3.235609554e-03 -8.706101154e+00 -1.126903289e+00 -4.276113778e-02 2.408203197e-03 -8.864302617e-01 -1.170635105e-01
1.530000e+09 -2.777562932e-01 -3.256030342e-03 -8.703393767e+00 -1.134019242e+00 -4.276224397e-02 2.424437315e-03 -8.863759739e-01 -1.178527061e-01
1.540000e+09 -2.777483822e-01 -3.276434095e-03 -8.700669099e+00 -1.141129331e+00 -4.276335816e-02 2.440679263e-03 -8.863212930e-01 -1.186422833e-01
1.550000e+09 -2.777404210e-01 -3.296820703e-03 -8.697927160e+00 -1.148233515e+00 -4.276448038e-02 2.456929099e-03 -8.862662184e-01 -1.194322449e-01
1.560000e+09 -2.777324098e-01 -3.317190055e-03 -8.695167961e+00 -1.155331757e+00 -4.276561064e-02 2.473186877e-03 -8.862107493e-01 -1.202225937e-01
1.570000e+09 -2.777243485e-01 -3.337542038e-03 -8.692391510e+00 -1.162424018e+00 -4.276674895e-02 2.489452655e-03 -8.861548849e-01 -1.210133322e-01
1.580000e+09 -2.777162372e-01 -3.357876542e-03 -8.689597817e+00 -1.169510260e+00 -4.276789532e-02 2.505726489e-03 -8.860986245e-01 -1.218044634e-01
1.590000e+09 -2.777080759e-01 -3.378193455e-03 -8.686786892e+00 -1.176590443e+00 -4.276904979e-02 2.522008434e-03 -8.860419672e-01 -1.225959899e-01
1.600000e+09 -2.776998646e-01 -3.398492667e-03 -8.683958746e+00 -1.183664531e+00 -4.277021235e-02 2.538298548e-03 -8.859849123e-01 -1.233879146e-01
1.610000e+09 -2.776916033e-01 -3.418774066e-03 -8.681113387e+00 -1.190732483e+00 -4.277138303e-02 2.554596888e-03 -8.859274590e-01 -1.241802400e-01
1.620000e+09 -2.776832921e-01 -3.439037540e-03 -8.678250825e+00 -1.197794263e+00 -4.277256185e-02 2.570903509e-03 -8.858696065e-01 -1.249729691e-01
1.630000e+09 -2.776749311e-01 -3.459282979e-03 -8.675371072e+00 -1.204849830e+00 -4.277374881e-02 2.587218469e-03 -8.858113539e-01 -1.257661046e-01
1.640000e+09 -2.776665202e-01 -3.479510271e-03 -8.672474136e+00 -1.211899147e+00 -4.277494394e-02 2.603541824e-03 -8.857527005e-01 -1.265596493e-01
1.650000e+09 -2.776580594e-01 -3.499719304e-03 -8.669560028e+00 -1.218942175e+00 -4.277614726e-02 2.619873632e-03 -8.856936454e-01 -1.273536059e-01
1.660000e+09 -2.776495488e-01 -3.519909969e-03 -8.666628758e+00 -1.225978876e+00 -4.277735877e-02 2.636213951e-03 -8.856341879e-01 -1.281479772e-01
1.670000e+09 -2.776409885e-01 -3.540082152e-03 -8.663680336e+00 -1.233009211e+00 -4.277857851e-02 2.652562836e-03 -8.855743270e-01 -1.289427661e-01
1.680000e+09 -2.776323784e-01 -3.560235744e-03 -8.660714774e+00 -1.240033142e+00 -4.277980647e-02 2.668920345e-03 -8.855140620e-01 -1.297379752e-01
1.690000e+09 -2.776237187e-01 -3.580370632e-03 -8.657732080e+00 -1.247050629e+00 -4.278104269e-02 2.685286537e-03 -8.854533920e-01 -1.305336075e-01
1.700000e+09 -2.776150092e-01 -3.600486706e-03 -8.654732267e+00 -1.254061636e+00 -4.278228717e-02 2.701661468e-03 -8.853923162e-01 -1.313296657e-01
1.710000e+09 -2.776062501e-01 -3.620583853e-03 -8.651715343e+00 -1.261066122e+00 -4.278353994e-02 2.718045197e-03 -8.853308336e-01 -1.321261526e-01
1.720000e+09 -2.775974413e-01 -3.640661964e-03 -8.648681321e+00 -1.268064050e+00 -4.278480101e-02 2.734437780e-03 -8.852689435e-01 -1.329230711e-01
1.730000e+09 -2.775885830e-01 -3.660720926e-03 -8.645630210e+00 -1.275055381e+00 -4.278607041e-02 2.750839277e-03 -8.852066449e-01 -1.337204239e-01
1.740000e+09 -2.775796751e-01 -3.680760628e-03 -8.642562022e+00 -1.282040076e+00 -4.278734814e-02 2.767249744e-03 -8.851439371e-01 -1.345182139e-01
1.750000e+09 -2.775707177e-01 -3.700780960e-03 -8.639476766e+00 -1.289018098e+00 -4.278863423e-02 2.783669241e-03 -8.850808190e-01 -1.353164439e-01
1.760000e+09 -2.775617108e-01 -3.720781809e-03 -8.636374455e+00 -1.295989407e+00 -4.278992870e-02 2.800097825e-03 -8.850172899e-01 -1.361151168e-01
1.770000e+09 -2.775526544e-01 -3.740763064e-03 -8.633255100e+00 -1.302953965e+00 -4.279123155e-02 2.816535555e-03 -8.849533488e-01 -1.369142353e-01
1.780000e+09 -2.775435486e-01 -3.760724614e-03 -8.630118710e+00 -1.309911733e+00 -4.279254282e-02 2.832982489e-03 -8.848889948e-01 -1.377138025e-01
1.790000e+09 -2.775343935e-01 -3.780666347e-03 -8.626965298e+00 -1.316862673e+00 -4.279386252e-02 2.849438685e-03 -8.848242270e-01 -1.385138210e-01
1.800000e+09 -2.775251889e-01 -3.800588153e-03 -8.623794875e+00 -1.323806747e+00 -4.279519067e-02 2.865904204e-03 -8.847590445e-01 -1.393142938e-01
1.810000e+09 -2.775159350e-01 -3.820489920e-03 -8.620607451e+00 -1.330743915e+00 -4.279652728e-02 2.882379103e-03 -8.846934464e-01 -1.401152237e-01
1.820000e+09 -2.775066318e-01 -3.840371536e-03 -8.617403038e+00 -1.337674140e+00 -4.279787238e-02 2.898863441e-03 -8.846274318e-01 -1.409166136e-01
1.830000e+09 -2.774972793e-01 -3.860232891e-03 -8.614181648e+00 -1.344597383e+00 -4.279922599e-02 2.915357277e-03 -8.845609996e-01 -1.417184664e-01
1.840000e+09 -2.774878776e-01 -3.880073872e-03 -8.610943293e+00 -1.351513605e+00 -4.280058812e-02 2.931860672e-03 -8.844941491e-01 -1.425207849e-01
1.850000e+09 -2.774784267e-01 -3.899894370e-03 -8.607687982e+00 -1.358422767e+00 -4.280195879e-02 2.948373683e-03 -8.844268791e-01 -1.433235721e-01
1.860000e+09 -2.774689267e-01 -3.919694271e-03 -8.604415729e+00 -1.365324832e+00 -4.280333802e-02 2.964896371e-03 -8.843591889e-01 -1.441268308e-01
1.870000e+09 -2.774593775e-01 -3.939473465e-03 -8.601126545e+00 -1.372219760e+00 -4.280472584e-02 2.981428794e-03 -8.842910773e-01 -1.449305640e-01
1.880000e+09 -2.774497792e-01 -3.959231840e-03 -8.597820442e+00 -1.379107514e+00 -4.280612226e-02 2.997971014e-03 -8.842225435e-01 -1.457347746e-01
1.890000e+09 -2.774401318e-01 -3.978969286e-03 -8.594497432e+00 -1.385988054e+00 -4.280752730e-02 3.014523089e-03 -8.841535864e-01 -1.465394653e-01
1.900000e+09 -2.774304354e-01 -3.998685690e-03 -8.591157525e+00 -1.392861343e+00 -4.280894099e-02 3.031085079e-03 -8.840842051e-01 -1.473446393e-01
1.910000e+09 -2.774206900e-01 -4.018380942e-03 -8.587800736e+00 -1.399727341e+00 -4.281036333e-02 3.047657045e-03 -8.840143986e-01 -1.481502994e-01
1.920000e+09 -2.774108957e-01 -4.038054929e-03 -8.584427075e+00 -1.406586010e+00 -4.281179436e-02 3.064239047e-03 -8.839441659e-01 -1.489564485e-01
1.930000e+09 -2.774010524e-01 -4.057707541e-03 -8.581036554e+00 -1.413437311e+00 -4.281323409e-02 3.080831145e-03 -8.838735060e-01 -1.497630896e-01
1.940000e+09 -2.773911602e-01 -4.077338667e-03 -8.577629187e+00 -1.420281206e+00 -4.281468255e-02 3.097433399e-03 -8.838024178e-01 -1.505702256e-01
1.950000e+09 -2.773812192e-01 -4.096948193e-03 -8.574204984e+00 -1.427117657e+00 -4.281613974e-02 3.114045870e-03 -8.837309005e-01 -1.513778595e-01
1.960000e+09 -2.773712293e-01 -4.116536010e-03 -8.570763959e+00 -1.433946624e+00 -4.281760571e-02 3.130668620e-03 -8.836589528e-01 -1.521859941e-01
1.970000e+09 -2.773611907e-01 -4.136102006e-03 -8.567306124e+00 -1.440768070e+00 -4.281908046e-02 3.147301708e-03 -8.835865739e-01 -1.529946326e-01
1.980000e+09 -2.773511033e-01 -4.155646070e-03 -8.563831492e+00 -1.447581956e+00 -4.282056401e-02 3.163945196e-03 -8.835137626e-01 -1.538037779e-01
1.990000e+09 -2.773409672e-01 -4.175168089e-03 -8.560340074e+00 -1.454388243e+00 -4.282205640e-02 3.180599144e-03 -8.834405180e-01 -1.546134328e-01
2.000000e+09 -2.773307824e-01 -4.194667953e-03 -8.556831884e+00 -1.461186892e+00 -4.282355763e-02 3.197263615e-03 -8.833668389e-01 -1.554236005e-01
2.010000e+09 -2.773205490e-01 -4.214145550e-03 -8.553306935e+00 -1.467977866e+00 -4.282506774e-02 3.213938669e-03 -8.832927243e-01 -1.562342839e-01
2.020000e+09 -2.773102670e-01 -4.233600768e-03 -8.549765238e+00 -1.474761125e+00 -4.282658673e-02 3.230624368e-03 -8.832181732e-01 -1.570454859e-01
2.030000e+09 -2.772999364e-01 -4.253033497e-03 -8.546206808e+00 -1.481536631e+00 -4.282811465e-02 3.247320774e-03 -8.831431844e-01 -1.578572097e-01
2.040000e+09 -2.772895573e-01 -4.272443624e-03 -8.542631657e+00 -1.488304346e+00 -4.282965150e-02 3.264027948e-03 -8.830677569e-01 -1.586694582e-01
2.050000e+09 -2.772791297e-01 -4.291831039e-03 -8.539039797e+00 -1.495064231e+00 -4.283119730e-02 3.280745953e-03 -8.829918896e-01 -1.594822344e-01
2.060000e+09 -2.772686537e-01 -4.311195630e-03 -8.535431243e+00 -1.501816248e+00 -4.283275209e-02 3.297474850e-03 -8.829155814e-01 -1.602955413e-01
2.070000e+09 -2.772581292e-01 -4.330537284e-03 -8.531806006e+00 -1.508560357e+00 -4.283431589e-02 3.314214702e-03 -8.828388311e-01 -1.611093820e-01
2.080000e+09 -2.772475564e-01 -4.349855892e-03 -8.528164101e+00 -1.515296521e+00 -4.283588871e-02 3.330965571e-03 -8.827616378e-01 -1.619237595e-01
2.090000e+09 -2.772369352e-01 -4.369151341e-03 -8.524505541e+00 -1.522024700e+00 -4.283747058e-02 3.347727519e-03 -8.826840002e-01 -1.627386769e-01
2.100000e+09 -2.772262657e-01 -4.388423519e-03 -8.520830339e+00 -1.528744857e+00 -4.283906152e-02 3.364500610e-03 -8.826059172e-01 -1.635541371e-01
2.110000e+09 -2.772155479e-01 -4.407672316e-03 -8.517138509e+00 -1.535456953e+00 -4.284066155e-02 3.381284906e-03 -8.825273878e-01 -1.643701433e-01
2.120000e+09 -2.772047820e-01 -4.426897620e-03 -8.513430063e+00 -1.542160949e+00 -4.284227071e-02 3.398080470e-03 -8.824484107e-01 -1.651866985e-01
2.130000e+09 -2.771939678e-01 -4.446099319e-03 -8.509705017e+00 -1.548856806e+00 -4.284388901e-02 3.414887366e-03 -8.823689848e-01 -1.660038059e-01
2.140000e+09 -2.771831055e-01 -4.465277301e-03 -8.505963382e+00 -1.555544487e+00 -4.284551647e-02 3.431705655e-03 -8.822891089e-01 -1.668214683e-01
2.150000e+09 -2.771721951e-01 -4.484431456e-03 -8.502205174e+00 -1.562223952e+00 -4.284715312e-02 3.448535403e-03 -8.822087819e-01 -1.676396891e-01
2.160000e+09 -2.771612366e-01 -4.503561671e-03 -8.498430406e+00 -1.568895164e+00 -4.284879898e-02 3.465376671e-03 -8.821280027e-01 -1.684584711e-01
2.170000e+09 -2.771502301e-01 -4.522667836e-03 -8.494639092e+00 -1.575558082e+00 -4.285045409e-02 3.482229525e-03 -8.820467699e-01 -1.692778176e-01
2.180000e+09 -2.771391756e-01 -4.541749838e-03 -8.490831246e+00 -1.582212670e+00 -4.285211845e-02 3.499094028e-03 -8.819650825e-01 -1.700977317e-01
2.190000e+09 -2.771280732e-01 -4.560807566e-03 -8.487006881e+00 -1.588858889e+00 -4.285379210e-02 3.515970243e-03 -8.818829392e-01 -1.709182164e-01
2.200000e+09 -2.771169229e-01 -4.579840908e-03 -8.483166013e+00 -1.595496699e+00 -4.285547505e-02 3.532858235e-03 -8.818003389e-01 -1.717392749e-01
2.210000e+09 -2.771057247e-01 -4.598849753e-03 -8.479308655e+00 -1.602126063e+00 -4.285716735e-02 3.549758069e-03 -8.817172803e-01 -1.725609103e-01
2.220000e+09 -2.770944787e-01 -4.617833989e-03 -8.475434822e+00 -1.608746942e+00 -4.285886900e-02 3.566669808e-03 -8.816337622e-01 -1.733831257e-01
2.230000e+09 -2.770831849e-01 -4.636793505e-03 -8.471544527e+00 -1.615359297e+00 -4.286058004e-02 3.583593518e-03 -8.815497834e-01 -1.742059243e-01
2.240000e+09 -2.770718433e-01 -4.655728190e-03 -8.467637786e+00 -1.621963090e+00 -4.286230048e-02 3.600529263e-03 -8.814653426e-01 -1.750293093e-01
2.250000e+09 -2.770604541e-01 -4.674637930e-03 -8.463714613e+00 -1.628558283e+00 -4.286403036e-02 3.617477108e-03 -8.813804386e-01 -1.758532838e-01
2.260000e+09 -2.770490172e-01 -4.693522615e-03 -8.459775022e+00 -1.635144836e+00 -4.286576971e-02 3.634437118e-03 -8.812950702e-01 -1.766778509e-01
2.270000e+09 -2.770375327e-01 -4.712382134e-03 -8.455819029e+00 -1.641722711e+00 -4.286751854e-02 3.651409359e-03 -8.812092360e-01 -1.775030139e-01
2.280000e+09 -2.770260006e-01 -4.731216374e-03 -8.451846648e+00 -1.648291870e+00 -4.286927688e-02 3.668393895e-03 -8.811229348e-01 -1.783287759e-01
2.290000e+09 -2.770144210e-01 -4.750025225e-03 -8.447857893e+00 -1.654852275e+00 -4.287104476e-02 3.685390793e-03 -8.810361654e-01 -1.791551401e-01
2.300000e+09 -2.770027939e-01 -4.768808573e-03 -8.443852780e+00 -1.661403886e+00 -4.287282220e-02 3.702400118e-03 -8.809489264e-01 -1.799821097e-01
2.310000e+09 -2.769911193e-01 -4.787566309e-03 -8.439831324e+00 -1.667946665e+00 -4.287460923e-02 3.719421936e-03 -8.808612166e-01 -1.808096879e-01
2.320000e+09 -2.769793974e-01 -4.806298320e-03 -8.435793539e+00 -1.674480574e+00 -4.287640588e-02 3.736456314e-03 -8.807730346e-01 -1.816378780e-01
2.330000e+09 -2.769676281e-01 -4.825004494e-03 -8.431739441e+00 -1.681005575e+00 -4.287821218e-02 3.753503316e-03 -8.806843792e-01 -1.824666831e-01
2.340000e+09 -2.769558114e-01 -4.843684720e-03 -8.427669046e+00 -1.687521628e+00 -4.288002814e-02 3.770563010e-03 -8.805952490e-01 -1.832961065e-01
2.350000e+09 -2.769439475e-01 -4.862338886e-03 -8.423582367e+00 -1.694028695e+00 -4.288185381e-02 3.787635463e-03 -8.805056427e-01 -1.841261514e-01
2.360000e+09 -2.769320364e-01 -4.880966881e-03 -8.419479422e+00 -1.700526737e+00 -4.288368920e-02 3.804720741e-03 -8.804155590e-01 -1.849568210e-01
2.370000e+09 -2.769200781e-01 -4.899568593e-03 -8.415360225e+00 -1.707015717e+00 -4.288553434e-02 3.821818910e-03 -8.803249964e-01 -1.857881187e-01
2.380000e+09 -2.769080727e-01 -4.918143910e-03 -8.411224791e+00 -1.713495596e+00 -4.288738926e-02 3.838930039e-03 -8.802339537e-01 -1.866200477e-01
2.390000e+09 -2.768960202e-01 -4.936692721e-03 -8.407073137e+00 -1.719966335e+00 -4.288925399e-02 3.856054194e-03 -8.801424296e-01 -1.874526112e-01
2.400000e+09 -2.768839206e-01 -4.955214913e-03 -8.402905278e+00 -1.726427896e+00 -4.289112855e-02 3.873191443e-03 -8.800504225e-01 -1.882858125e-01
2.410000e+09 -2.768717740e-01 -4.973710376e-03 -8.398721230e+00 -1.732880239e+00 -4.289301298e-02 3.890341853e-03 -8.799579312e-01 -1.891196549e-01
2.420000e+09 -2.768595805e-01 -4.992178998e-03 -8.394521009e+00 -1.739323328e+00 -4.289490730e-02 3.907505492e-03 -8.798649543e-01 -1.899541418e-01
2.430000e+09 -2.768473401e-01 -5.010620666e-03 -8.390304630e+00 -1.745757122e+00 -4.289681154e-02 3.924682428e-03 -8.797714903e-01 -1.907892763e-01
2.440000e+09 -2.768350528e-01 -5.029035270e-03 -8.386072110e+00 -1.752181585e+00 -4.289872573e-02 3.941872729e-03 -8.796775378e-01 -1.916250619e-01
2.450000e+09 -2.768227186e-01 -5.047422698e-03 -8.381823464e+00 -1.758596677e+00 -4.290064989e-02 3.959076464e-03 -8.795830956e-01 -1.924615019e-01
2.460000e+09 -2.768103378e-01 -5.065782837e-03 -8.377558710e+00 -1.765002359e+00 -4.290258407e-02 3.976293701e-03 -8.794881620e-01 -1.932985995e-01
2.470000e+09 -2.767979101e-01 -5.084115577e-03 -8.373277862e+00 -1.771398594e+00 -4.290452828e-02 3.993524508e-03 -8.793927357e-01 -1.941363581e-01
2.480000e+09 -2.767854358e-01 -5.102420805e-03 -8.368980938e+00 -1.777785342e+00 -4.290648255e-02 4.010768955e-03 -8.792968152e-01 -1.949747811e-01
2.490000e+09 -2.767729149e-01 -5.120698410e-03 -8.364667954e+00 -1.784162567e+00 -4.290844692e-02 4.028027110e-03 -8.792003992e-01 -1.958138718e-01
2.500000e+09 -2.767603474e-01 -5.138948281e-03 -8.360338927e+00 -1.790530227e+00 -4.291042142e-02 4.045299043e-03 -8.791034860e-01 -1.966536336e-01
2.510000e+09 -2.767477333e-01 -5.157170305e-03 -8.355993872e+00 -1.796888287e+00 -4.291240607e-02 4.062584824e-03 -8.790060743e-01 -1.974940699e-01
2.520000e+09 -2.767350728e-01 -5.175364371e-03 -8.351632807e+00 -1.803236706e+00 -4.291440091e-02 4.079884521e-03 -8.789081626e-01 -1.983351840e-01
2.530000e+09 -2.767223658e-01 -5.193530367e-03 -8.347255748e+00 -1.809575447e+00 -4.291640596e-02 4.097198204e-03 -8.788097494e-01 -1.991769793e-01
2.540000e+09 -2.767096125e-01 -5.211668182e-03 -8.342862713e+00 -1.815904472e+00 -4.291842126e-02 4.114525944e-03 -8.787108332e-01 -2.000194593e-01
2.550000e+09 -2.766968127e-01 -5.229777703e-03 -8.338453718e+00 -1.822223740e+00 -4.292044683e-02 4.131867810e-03 -8.786114125e-01 -2.008626273e-01
2.560000e+09 -2.766839667e-01 -5.247858820e-03 -8.334028779e+00 -1.828533215e+00 -4.292248271e-02 4.149223873e-03 -8.785114857e-01 -2.017064868e-01
2.570000e+09 -2.766710745e-01 -5.265911421e-03 -8.329587915e+00 -1.834832858e+00 -4.292452893e-02 4.166594204e-03 -8.784110514e-01 -2.025510412e-01
2.580000e+09 -2.766581360e-01 -5.283935393e-03 -8.325131142e+00 -1.841122631e+00 -4.292658552e-02 4.183978873e-03 -8.783101080e-01 -2.033962940e-01
2.590000e+09 -2.766451514e-01 -5.301930626e-03 -8.320658478e+00 -1.847402494e+00 -4.292865252e-02 4.201377951e-03 -8.782086539e-01 -2.042422485e-01
2.600000e+09 -2.766321207e-01 -5.319897007e-03 -8.316169939e+00 -1.853672409e+00 -4.293072994e-02 4.218791509e-03 -8.781066876e-01 -2.050889082e-01
2.610000e+09 -2.766190440e-01 -5.337834425e-03 -8.311665544e+00 -1.859932339e+00 -4.293281783e-02 4.236219619e-03 -8.780042076e-01 -2.059362766e-01
2.620000e+09 -2.766059212e-01 -5.355742768e-03 -8.307145309e+00 -1.866182245e+00 -4.293491622e-02 4.253662351e-03 -8.779012123e-01 -2.067843573e-01
2.630000e+09 -2.765927525e-01 -5.373621925e-03 -8.302609252e+00 -1.872422088e+00 -4.293702514e-02 4.271119779e-03 -8.777977000e-01 -2.076331535e-01
2.640000e+09 -2.765795380e-01 -5.391471784e-03 -8.298057392e+00 -1.878651830e+00 -4.293914462e-02 4.288591973e-03 -8.776936692e-01 -2.084826690e-01
2.650000e+09 -2.765662775e-01 -5.409292234e-03 -8.293489745e+00 -1.884871432e+00 -4.294127469e-02 4.306079005e-03 -8.775891183e-01 -2.093329071e-01
2.660000e+09 -2.765529713e-01 -5.427083162e-03 -8.288906329e+00 -1.891080856e+00 -4.294341539e-02 4.323580949e-03 -8.774840457e-01 -2.101838714e-01
2.670000e+09 -2.765396193e-01 -5.444844457e-03 -8.284307163e+00 -1.897280064e+00 -4.294556676e-02 4.341097876e-03 -8.773784497e-01 -2.110355654e-01
2.680000e+09 -2.765262217e-01 -5.462576008e-03 -8.279692264e+00 -1.903469018e+00 -4.294772881e-02 4.358629859e-03 -8.772723287e-01 -2.118879926e-01
2.690000e+09 -2.765127784e-01 -5.480277703e-03 -8.275061650e+00 -1.909647679e+00 -4.294990160e-02 4.376176972e-03 -8.771656811e-01 -2.127411567e-01
2.700000e+09 -2.764992895e-01 -5.497949430e-03 -8.270415340e+00 -1.915816008e+00 -4.295208515e-02 4.393739287e-03 -8.770585052e-01 -2.135950610e-01
2.710000e+09 -2.764857551e-01 -5.515591077e-03 -8.265753352e+00 -1.921973967e+00 -4.295427949e-02 4.411316877e-03 -8.769507994e-01 -2.144497093e-01
2.720000e+09 -2.764721752e-01 -5.533202534e-03 -8.261075703e+00 -1.928121518e+00 -4.295648466e-02 4.428909816e-03 -8.768425619e-01 -2.153051050e-01
2.730000e+09 -2.764585498e-01 -5.550783689e-03 -8.256382413e+00 -1.934258623e+00 -4.295870070e-02 4.446518178e-03 -8.767337911e-01 -2.161612518e-01
2.740000e+09 -2.764448791e-01 -5.568334429e-03 -8.251673500e+00 -1.940385243e+00 -4.296092763e-02 4.464142037e-03 -8.766244852e-01 -2.170181532e-01
2.750000e+09 -2.764311631e-01 -5.585854645e-03 -8.246948983e+00 -1.946501340e+00 -4.296316550e-02 4.481781467e-03 -8.765146427e-01 -2.178758129e-01
2.760000e+09 -2.764174018e-01 -5.603344223e-03 -8.242208879e+00 -1.952606876e+00 -4.296541434e-02 4.499436542e-03 -8.764042617e-01 -2.187342345e-01
2.770000e+09 -2.764035953e-01 -5.620803052e-03 -8.237453208e+00 -1.958701812e+00 -4.296767418e-02 4.517107337e-03 -8.762933405e-01 -2.195934216e-01
2.780000e+09 -2.763897436e-01 -5.638231021e-03 -8.232681990e+00 -1.964786110e+00 -4.296994507e-02 4.534793927e-03 -8.761818775e-01 -2.204533778e-01
2.790000e+09 -2.763758468e-01 -5.655628019e-03 -8.227895241e+00 -1.970859731e+00 -4.297222702e-02 4.552496386e-03 -8.760698708e-01 -2.213141067e-01
2.800000e+09 -2.763619050e-01 -5.672993934e-03 -8.223092982e+00 -1.976922638e+00 -4.297452009e-02 4.570214791e-03 -8.759573187e-01 -2.221756122e-01
2.810000e+09 -2.763479182e-01 -5.690328654e-03 -8.218275232e+00 -1.982974791e+00 -4.297682430e-02 4.587949216e-03 -8.758442193e-01 -2.230378977e-01
2.820000e+09 -2.763338864e-01 -5.707632068e-03 -8.213442010e+00 -1.989016154e+00 -4.297913970e-02 4.605699736e-03 -8.757305711e-01 -2.239009670e-01
2.830000e+09 -2.763198098e-01 -5.724904064e-03 -8.208593335e+00 -1.995046687e+00 -4.298146632e-02 4.623466429e-03 -8.756163720e-01 -2.247648238e-01
2.840000e+09 -2.763056883e-01 -5.742144532e-03 -8.203729226e+00 -2.001066352e+00 -4.298380420e-02 4.641249371e-03 -8.755016204e-01 -2.256294717e-01
2.850000e+09 -2.762915221e-01 -5.759353360e-03 -8.198849703e+00 -2.007075111e+00 -4.298615337e-02 4.659048636e-03 -8.753863144e-01 -2.264949146e-01
2.860000e+09 -2.762773111e-01 -5.776530435e-03 -8.193954786e+00 -2.013072925e+00 -4.298851387e-02 4.676864303e-03 -8.752704522e-01 -2.273611560e-01
2.870000e+09 -2.762630554e-01 -5.793675648e-03 -8.189044493e+00 -2.019059757e+00 -4.299088574e-02 4.694696447e-03 -8.751540320e-01 -2.282281998e-01
2.880000e+09 -2.762487552e-01 -5.810788886e-03 -8.184118845e+00 -2.025035569e+00 -4.299326902e-02 4.712545146e-03 -8.750370519e-01 -2.290960496e-01
2.890000e+09 -2.762344104e-01 -5.827870039e-03 -8.179177862e+00 -2.031000321e+00 -4.299566374e-02 4.730410478e-03 -8.749195100e-01 -2.299647093e-01
2.900000e+09 -2.762200212e-01 -5.844918994e-03 -8.174221563e+00 -2.036953976e+00 -4.299806995e-02 4.748292519e-03 -8.748014045e-01 -2.308341826e-01
2.910000e+09 -2.762055874e-01 -5.861935641e-03 -8.169249967e+00 -2.042896495e+00 -4.300048768e-02 4.766191347e-03 -8.746827335e-01 -2.317044733e-01
2.920000e+09 -2.761911094e-01 -5.878919869e-03 -8.164263097e+00 -2.048827841e+00 -4.300291696e-02 4.784107041e-03 -8.745634951e-01 -2.325755851e-01
2.930000e+09 -2.761765870e-01 -5.895871565e-03 -8.159260970e+00 -2.054747975e+00 -4.300535785e-02 4.802039678e-03 -8.744436873e-01 -2.334475219e-01
2.940000e+09 -2.761620203e-01 -5.912790619e-03 -8.154243609e+00 -2.060656859e+00 -4.300781037e-02 4.819989337e-03 -8.743233084e-01 -2.343202875e-01
2.950000e+09 -2.761474095e-01 -5.929676920e-03 -8.149211032e+00 -2.066554454e+00 -4.301027458e-02 4.837956097e-03 -8.742023563e-01 -2.351938857e-01
2.960000e+09 -2.761327545e-01 -5.946530356e-03 -8.144163260e+00 -2.072440724e+00 -4.301275050e-02 4.855940035e-03 -8.740808291e-01 -2.360683203e-01
2.970000e+09 -2.761180554e-01 -5.963350816e-03 -8.139100314e+00 -2.078315628e+00 -4.301523817e-02 4.873941233e-03 -8.739587248e-01 -2.369435952e-01
2.980000e+09 -2.761033123e-01 -5.980138190e-03 -8.134022215e+00 -2.084179130e+00 -4.301773765e-02 4.891959768e-03 -8.738360415e-01 -2.378197142e-01
2.990000e+09 -2.760885252e-01 -5.996892365e-03 -8.128928982e+00 -2.090031191e+00 -4.302024896e-02 4.909995721e-03 -8.737127773e-01 -2.386966813e-01
3.000000e+09 -2.760736943e-01 -6.013613231e-03 -8.123820638e+00 -2.095871773e+00 -4.302277215e-02 4.928049171e-03 -8.735889300e-01 -2.395745002e-01
