! rfsim (KiCad + openEMS)
# HZ S RI R 50
5.000000e+08 -9.802886163e-01 2.238439413e-01 -4.176278856e+00 3.574388013e+00 0.000000000e+00 0.000000000e+00 0.000000000e+00 0.000000000e+00
5.100000e+08 -9.758527062e-01 2.241765363e-01 -4.105440213e+00 3.579698155e+00 0.000000000e+00 0.000000000e+00 0.000000000e+00 0.000000000e+00
5.200000e+08 -9.714913149e-01 2.244175871e-01 -4.035791462e+00 3.583546509e+00 0.000000000e+00 0.000000000e+00 0.000000000e+00 0.000000000e+00
5.300000e+08 -9.672049855e-01 2.245717160e-01 -3.967341275e+00 3.586006883e+00 0.000000000e+00 0.000000000e+00 0.000000000e+00 0.000000000e+00
5.400000e+08 -9.629940702e-01 2.246433958e-01 -3.900095275e+00 3.587150705e+00 0.000000000e+00 0.000000000e+00 0.000000000e+00 0.000000000e+00
5.500000e+08 -9.588587455e-01 2.246369483e-01 -3.834056281e+00 3.587046989e+00 0.000000000e+00 0.000000000e+00 0.000000000e+00 0.000000000e+00
5.600000e+08 -9.547990270e-01 2.245565435e-01 -3.769224545e+00 3.585762324e+00 0.000000000e+00 0.000000000e+00 0.000000000e+00 0.000000000e+00
5.700000e+08 -9.508147839e-01 2.244061992e-01 -3.705597975e+00 3.583360869e+00 0.000000000e+00 0.000000000e+00 0.000000000e+00 0.000000000e+00
5.800000e+08 -9.469057516e-01 2.241897817e-01 -3.643172347e+00 3.579904365e+00 0.000000000e+00 0.000000000e+00 0.000000000e+00 0.000000000e+00
5.900000e+08 -9.430715446e-01 2.239110072e-01 -3.581941507e+00 3.575452155e+00 0.000000000e+00 0.000000000e+00 0.000000000e+00 0.000000000e+00
6.000000e+08 -9.393116682e-01 2.235734437e-01 -3.521897553e+00 3.570061214e+00 0.000000000e+00 0.000000000e+00 0.000000000e+00 0.000000000e+00
6.100000e+08 -9.356255293e-01 2.231805128e-01 -3.463031015e+00 3.563786185e+00 0.000000000e+00 0.000000000e+00 0.000000000e+00 0.000000000e+00
6.200000e+08 -9.320124470e-01 2.227354932e-01 -3.405331021e+00 3.556679421e+00 0.000000000e+00 0.000000000e+00 0.000000000e+00 0.000000000e+00
6.300000e+08 -9.284716619e-01 2.222415231e-01 -3.348785445e+00 3.548791037e+00 0.000000000e+00 0.000000000e+00 0.000000000e+00 0.000000000e+00
6.400000e+08 -9.250023455e-01 2.217016036e-01 -3.293381055e+00 3.540168959e+00 0.000000000e+00 0.000000000e+00 0.000000000e+00 0.000000000e+00
6.500000e+08 -9.216036079e-01 2.211186027e-01 -3.239103643e+00 3.530858983e+00 0.000000000e+00 0.000000000e+00 0.000000000e+00 0.000000000e+00
6.600000e+08 -9.182745062e-01 2.204952585e-01 -3.185938151e+00 3.520904834e+00 0.000000000e+00 0.000000000e+00 0.000000000e+00 0.000000000e+00
6.700000e+08 -9.150140509e-01 2.198341833e-01 -3.133868781e+00 3.510348228e+00 0.000000000e+00 0.000000000e+00 0.000000000e+00 0.000000000e+00
6.800000e+08 -9.118212133e-01 2.191378676e-01 -3.082879103e+00 3.499228936e+00 0.000000000e+00 0.000000000e+00 0.000000000e+00 0.000000000e+00
6.900000e+08 -9.086949308e-01 2.184086841e-01 -3.032952151e+00 3.487584847e+00 0.000000000e+00 0.000000000e+00 0.000000000e+00 0.000000000e+00
7.000000e+08 -9.056341129e-01 2.176488916e-01 -2.984070511e+00 3.475452033e+00 0.000000000e+00 0.000000000e+00 0.000000000e+00 0.000000000e+00
7.100000e+08 -9.026376463e-01 2.168606395e-01 -2.936216405e+00 3.462864815e+00 0.000000000e+00 0.000000000e+00 0.000000000e+00 0.000000000e+00
7.200000e+08 -8.997043993e-01 2.160459713e-01 -2.889371764e+00 3.449855829e+00 0.000000000e+00 0.000000000e+00 0.000000000e+00 0.000000000e+00
7.300000e+08 -8.968332266e-01 2.152068291e-01 -2.843518295e+00 3.436456087e+00 0.000000000e+00 0.000000000e+00 0.000000000e+00 0.000000000e+00
7.400000e+08 -8.940229724e-01 2.143450575e-01 -2.798637546e+00 3.422695045e+00 0.000000000e+00 0.000000000e+00 0.000000000e+00 0.000000000e+00
7.500000e+08 -8.912724746e-01 2.134624074e-01 -2.754710960e+00 3.408600664e+00 0.000000000e+00 0.000000000e+00 0.000000000e+00 0.000000000e+00
7.600000e+08 -8.885805680e-01 2.125605399e-01 -2.711719927e+00 3.394199470e+00 0.000000000e+00 0.000000000e+00 0.000000000e+00 0.000000000e+00
7.700000e+08 -8.859460865e-01 2.116410301e-01 -2.669645830e+00 3.379516617e+00 0.000000000e+00 0.000000000e+00 0.000000000e+00 0.000000000e+00
7.800000e+08 -8.833678666e-01 2.107053709e-01 -2.628470088e+00 3.364575943e+00 0.000000000e+00 0.000000000e+00 0.000000000e+00 0.000000000e+00
7.900000e+08 -8.808447490e-01 2.097549763e-01 -2.588174191e+00 3.349400032e+00 0.000000000e+00 0.000000000e+00 0.000000000e+00 0.000000000e+00
8.000000e+08 -8.783755814e-01 2.087911852e-01 -2.548739736e+00 3.334010264e+00 0.000000000e+00 0.000000000e+00 0.000000000e+00 0.000000000e+00
8.100000e+08 -8.759592195e-01 2.078152648e-01 -2.510148454e+00 3.318426873e+00 0.000000000e+00 0.000000000e+00 0.000000000e+00 0.000000000e+00
8.200000e+08 -8.735945297e-01 2.068284133e-01 -2.472382239e+00 3.302668998e+00 0.000000000e+00 0.000000000e+00 0.000000000e+00 0.000000000e+00
8.300000e+08 -8.712803896e-01 2.058317640e-01 -2.435423171e+00 3.286754733e+00 0.000000000e+00 0.000000000e+00 0.000000000e+00 0.000000000e+00
8.400000e+08 -8.690156899e-01 2.048263875e-01 -2.399253537e+00 3.270701177e+00 0.000000000e+00 0.000000000e+00 0.000000000e+00 0.000000000e+00
8.500000e+08 -8.667993353e-01 2.038132952e-01 -2.363855846e+00 3.254524481e+00 0.000000000e+00 0.000000000e+00 0.000000000e+00 0.000000000e+00
8.600000e+08 -8.646302456e-01 2.027934417e-01 -2.329212848e+00 3.238239889e+00 0.000000000e+00 0.000000000e+00 0.000000000e+00 0.000000000e+00
8.700000e+08 -8.625073563e-01 2.017677278e-01 -2.295307548e+00 3.221861790e+00 0.000000000e+00 0.000000000e+00 0.000000000e+00 0.000000000e+00
8.800000e+08 -8.604296197e-01 2.007370033e-01 -2.262123213e+00 3.205403751e+00 0.000000000e+00 0.000000000e+00 0.000000000e+00 0.000000000e+00
8.900000e+08 -8.583960052e-01 1.997020690e-01 -2.229643388e+00 3.188878562e+00 0.000000000e+00 0.000000000e+00 0.000000000e+00 0.000000000e+00
9.000000e+08 -8.564054999e-01 1.986636794e-01 -2.197851898e+00 3.172298273e+00 0.000000000e+00 0.000000000e+00 0.000000000e+00 0.000000000e+00
9.100000e+08 -8.544571090e-01 1.976225451e-01 -2.166732859e+00 3.155674231e+00 0.000000000e+00 0.000000000e+00 0.000000000e+00 0.000000000e+00
9.200000e+08 -8.525498562e-01 1.965793348e-01 -2.136270679e+00 3.139017116e+00 0.000000000e+00 0.000000000e+00 0.000000000e+00 0.000000000e+00
9.300000e+08 -8.506827837e-01 1.955346774e-01 -2.106450066e+00 3.122336971e+00 0.000000000e+00 0.000000000e+00 0.000000000e+00 0.000000000e+00
9.400000e+08 -8.488549527e-01 1.944891641e-01 -2.077256030e+00 3.105643240e+00 0.000000000e+00 0.000000000e+00 0.000000000e+00 0.000000000e+00
9.500000e+08 -8.470654433e-01 1.934433504e-01 -2.048673880e+00 3.088944793e+00 0.000000000e+00 0.000000000e+00 0.000000000e+00 0.000000000e+00
9.600000e+08 -8.453133547e-01 1.923977578e-01 -2.020689233e+00 3.072249959e+00 0.000000000e+00 0.000000000e+00 0.000000000e+00 0.000000000e+00
9.700000e+08 -8.435978050e-01 1.913528756e-01 -1.993288007e+00 3.055566552e+00 0.000000000e+00 0.000000000e+00 0.000000000e+00 0.000000000e+00
9.800000e+08 -8.419179315e-01 1.903091626e-01 -1.966456425e+00 3.038901898e+00 0.000000000e+00 0.000000000e+00 0.000000000e+00 0.000000000e+00
9.900000e+08 -8.402728900e-01 1.892670484e-01 -1.940181008e+00 3.022262861e+00 0.000000000e+00 0.000000000e+00 0.000000000e+00 0.000000000e+00
1.000000e+09 -8.386618554e-01 1.882269355e-01 -1.914448582e+00 3.005655867e+00 0.000000000e+00 0.000000000e+00 0.000000000e+00 0.000000000e+00
1.010000e+09 -8.370840212e-01 1.871892001e-01 -1.889246267e+00 2.989086928e+00 0.000000000e+00 0.000000000e+00 0.000000000e+00 0.000000000e+00
1.020000e+09 -8.355385992e-01 1.861541940e-01 -1.864561478e+00 2.972561659e+00 0.000000000e+00 0.000000000e+00 0.000000000e+00 0.000000000e+00
1.030000e+09 -8.340248196e-01 1.851222455e-01 -1.840381923e+00 2.956085306e+00 0.000000000e+00 0.000000000e+00 0.000000000e+00 0.000000000e+00
1.040000e+09 -8.325419304e-01 1.840936610e-01 -1.816695595e+00 2.939662760e+00 0.000000000e+00 0.000000000e+00 0.000000000e+00 0.000000000e+00
1.050000e+09 -8.310891976e-01 1.830687257e-01 -1.793490772e+00 2.923298580e+00 0.000000000e+00 0.000000000e+00 0.000000000e+00 0.000000000e+00
1.060000e+09 -8.296659046e-01 1.820477053e-01 -1.770756013e+00 2.906997008e+00 0.000000000e+00 0.000000000e+00 0.000000000e+00 0.000000000e+00
1.070000e+09 -8.282713520e-01 1.810308466e-01 -1.748480150e+00 2.890761987e+00 0.000000000e+00 0.000000000e+00 0.000000000e+00 0.000000000e+00
1.080000e+09 -8.269048574e-01 1.800183788e-01 -1.726652288e+00 2.874597176e+00 0.000000000e+00 0.000000000e+00 0.000000000e+00 0.000000000e+00
1.090000e+09 -8.255657552e-01 1.790105143e-01 -1.705261796e+00 2.858505970e+00 0.000000000e+00 0.000000000e+00 0.000000000e+00 0.000000000e+00
1.100000e+09 -8.242533958e-01 1.780074495e-01 -1.684298304e+00 2.842491507e+00 0.000000000e+00 0.000000000e+00 0.000000000e+00 0.000000000e+00
1.110000e+09 -8.229671459e-01 1.770093662e-01 -1.663751699e+00 2.826556689e+00 0.000000000e+00 0.000000000e+00 0.000000000e+00 0.000000000e+00
1.120000e+09 -8.217063879e-01 1.760164317e-01 -1.643612119e+00 2.810704189e+00 0.000000000e+00 0.000000000e+00 0.000000000e+00 0.000000000e+00
1.130000e+09 -8.204705195e-01 1.750288001e-01 -1.623869948e+00 2.794936471e+00 0.000000000e+00 0.000000000e+00 0.000000000e+00 0.000000000e+00
1.140000e+09 -8.192589536e-01 1.740466128e-01 -1.604515811e+00 2.779255792e+00 0.000000000e+00 0.000000000e+00 0.000000000e+00 0.000000000e+00
1.150000e+09 -8.180711177e-01 1.730699994e-01 -1.585540567e+00 2.763664222e+00 0.000000000e+00 0.000000000e+00 0.000000000e+00 0.000000000e+00
1.160000e+09 -8.169064539e-01 1.720990780e-01 -1.566935309e+00 2.748163650e+00 0.000000000e+00 0.000000000e+00 0.000000000e+00 0.000000000e+00
1.170000e+09 -8.157644184e-01 1.711339562e-01 -1.548691351e+00 2.732755796e+00 0.000000000e+00 0.000000000e+00 0.000000000e+00 0.000000000e+00
1.180000e+09 -8.146444810e-01 1.701747317e-01 -1.530800232e+00 2.717442219e+00 0.000000000e+00 0.000000000e+00 0.000000000e+00 0.000000000e+00
1.190000e+09 -8.135461252e-01 1.692214926e-01 -1.513253702e+00 2.702224328e+00 0.000000000e+00 0.000000000e+00 0.000000000e+00 0.000000000e+00
1.200000e+09 -8.124688476e-01 1.682743180e-01 -1.496043723e+00 2.687103387e+00 0.000000000e+00 0.000000000e+00 0.000000000e+00 0.000000000e+00
1.210000e+09 -8.114121576e-01 1.673332788e-01 -1.479162463e+00 2.672080529e+00 0.000000000e+00 0.000000000e+00 0.000000000e+00 0.000000000e+00
1.220000e+09 -8.103755771e-01 1.663984377e-01 -1.462602289e+00 2.657156757e+00 0.000000000e+00 0.000000000e+00 0.000000000e+00 0.000000000e+00
1.230000e+09 -8.093586403e-01 1.654698501e-01 -1.446355763e+00 2.642332957e+00 0.000000000e+00 0.000000000e+00 0.000000000e+00 0.000000000e+00
1.240000e+09 -8.083608933e-01 1.645475644e-01 -1.430415638e+00 2.627609902e+00 0.000000000e+00 0.000000000e+00 0.000000000e+00 0.000000000e+00
1.250000e+09 -8.073818939e-01 1.636316222e-01 -1.414774853e+00 2.612988260e+00 0.000000000e+00 0.000000000e+00 0.000000000e+00 0.000000000e+00
1.260000e+09 -8.064212112e-01 1.627220591e-01 -1.399426527e+00 2.598468596e+00 0.000000000e+00 0.000000000e+00 0.000000000e+00 0.000000000e+00
1.270000e+09 -8.054784251e-01 1.618189045e-01 -1.384363957e+00 2.584051386e+00 0.000000000e+00 0.000000000e+00 0.000000000e+00 0.000000000e+00
1.280000e+09 -8.045531267e-01 1.609221826e-01 -1.369580611e+00 2.569737014e+00 0.000000000e+00 0.000000000e+00 0.000000000e+00 0.000000000e+00
1.290000e+09 -8.036449174e-01 1.600319123e-01 -1.355070125e+00 2.555525784e+00 0.000000000e+00 0.000000000e+00 0.000000000e+00 0.000000000e+00
1.300000e+09 -8.027534086e-01 1.591481076e-01 -1.340826296e+00 2.541417920e+00 0.000000000e+00 0.000000000e+00 0.000000000e+00 0.000000000e+00
1.310000e+09 -8.018782219e-01 1.582707779e-01 -1.326843084e+00 2.527413574e+00 0.000000000e+00 0.000000000e+00 0.000000000e+00 0.000000000e+00
1.320000e+09 -8.010189886e-01 1.573999284e-01 -1.313114600e+00 2.513512829e+00 0.000000000e+00 0.000000000e+00 0.000000000e+00 0.000000000e+00
1.330000e+09 -8.001753493e-01 1.565355601e-01 -1.299635107e+00 2.499715705e+00 0.000000000e+00 0.000000000e+00 0.000000000e+00 0.000000000e+00
1.340000e+09 -7.993469539e-01 1.556776704e-01 -1.286399016e+00 2.486022159e+00 0.000000000e+00 0.000000000e+00 0.000000000e+00 0.000000000e+00
1.350000e+09 -7.985334612e-01 1.548262532e-01 -1.273400879e+00 2.472432094e+00 0.000000000e+00 0.000000000e+00 0.000000000e+00 0.000000000e+00
1.360000e+09 -7.977345387e-01 1.539812987e-01 -1.260635388e+00 2.458945359e+00 0.000000000e+00 0.000000000e+00 0.000000000e+00 0.000000000e+00
1.370000e+09 -7.969498623e-01 1.531427946e-01 -1.248097369e+00 2.445561753e+00 0.000000000e+00 0.000000000e+00 0.000000000e+00 0.000000000e+00
1.380000e+09 -7.961791163e-01 1.523107252e-01 -1.235781781e+00 2.432281030e+00 0.000000000e+00 0.000000000e+00 0.000000000e+00 0.000000000e+00
1.390000e+09 -7.954219928e-01 1.514850722e-01 -1.223683712e+00 2.419102900e+00 0.000000000e+00 0.000000000e+00 0.000000000e+00 0.000000000e+00
1.400000e+09 -7.946781920e-01 1.506658151e-01 -1.211798372e+00 2.406027032e+00 0.000000000e+00 0.000000000e+00 0.000000000e+00 0.000000000e+00
1.410000e+09 -7.939474214e-01 1.498529306e-01 -1.200121094e+00 2.393053059e+00 0.000000000e+00 0.000000000e+00 0.000000000e+00 0.000000000e+00
1.420000e+09 -7.932293961e-01 1.490463934e-01 -1.188647330e+00 2.380180578e+00 0.000000000e+00 0.000000000e+00 0.000000000e+00 0.000000000e+00
1.430000e+09 -7.925238384e-01 1.482461763e-01 -1.177372644e+00 2.367409153e+00 0.000000000e+00 0.000000000e+00 0.000000000e+00 0.000000000e+00
1.440000e+09 -7.918304773e-01 1.474522499e-01 -1.166292714e+00 2.354738318e+00 0.000000000e+00 0.000000000e+00 0.000000000e+00 0.000000000e+00
1.450000e+09 -7.911490490e-01 1.466645834e-01 -1.155403326e+00 2.342167581e+00 0.000000000e+00 0.000000000e+00 0.000000000e+00 0.000000000e+00
1.460000e+09 -7.904792961e-01 1.458831440e-01 -1.144700372e+00 2.329696420e+00 0.000000000e+00 0.000000000e+00 0.000000000e+00 0.000000000e+00
1.470000e+09 -7.898209676e-01 1.451078976e-01 -1.134179847e+00 2.317324293e+00 0.000000000e+00 0.000000000e+00 0.000000000e+00 0.000000000e+00
1.480000e+09 -7.891738189e-01 1.443388088e-01 -1.123837846e+00 2.305050632e+00 0.000000000e+00 0.000000000e+00 0.000000000e+00 0.000000000e+00
1.490000e+09 -7.885376115e-01 1.435758407e-01 -1.113670560e+00 2.292874852e+00 0.000000000e+00 0.000000000e+00 0.000000000e+00 0.000000000e+00
1.500000e+09 -7.879121127e-01 1.428189554e-01 -1.103674277e+00 2.280796346e+00 0.000000000e+00 0.000000000e+00 0.000000000e+00 0.000000000e+00
1.510000e+09 -7.872970956e-01 1.420681138e-01 -1.093845376e+00 2.268814493e+00 0.000000000e+00 0.000000000e+00 0.000000000e+00 0.000000000e+00
1.520000e+09 -7.866923391e-01 1.413232758e-01 -1.084180325e+00 2.256928654e+00 0.000000000e+00 0.000000000e+00 0.000000000e+00 0.000000000e+00
1.530000e+09 -7.860976272e-01 1.405844005e-01 -1.074675680e+00 2.245138175e+00 0.000000000e+00 0.000000000e+00 0.000000000e+00 0.000000000e+00
1.540000e+09 -7.855127497e-01 1.398514461e-01 -1.065328083e+00 2.233442391e+00 0.000000000e+00 0.000000000e+00 0.000000000e+00 0.000000000e+00
1.550000e+09 -7.849375010e-01 1.391243701e-01 -1.056134255e+00 2.221840623e+00 0.000000000e+00 0.000000000e+00 0.000000000e+00 0.000000000e+00
1.560000e+09 -7.843716811e-01 1.384031293e-01 -1.047091002e+00 2.210332184e+00 0.000000000e+00 0.000000000e+00 0.000000000e+00 0.000000000e+00
1.570000e+09 -7.838150944e-01 1.376876800e-01 -1.038195204e+00 2.198916373e+00 0.000000000e+00 0.000000000e+00 0.000000000e+00 0.000000000e+00
1.580000e+09 -7.832675503e-01 1.369779777e-01 -1.029443820e+00 2.187592486e+00 0.000000000e+00 0.000000000e+00 0.000000000e+00 0.000000000e+00
1.590000e+09 -7.827288628e-01 1.362739778e-01 -1.020833880e+00 2.176359807e+00 0.000000000e+00 0.000000000e+00 0.000000000e+00 0.000000000e+00
1.600000e+09 -7.821988505e-01 1.355756349e-01 -1.012362489e+00 2.165217614e+00 0.000000000e+00 0.000000000e+00 0.000000000e+00 0.000000000e+00
1.610000e+09 -7.816773362e-01 1.348829035e-01 -1.004026820e+00 2.154165181e+00 0.000000000e+00 0.000000000e+00 0.000000000e+00 0.000000000e+00
1.620000e+09 -7.811641471e-01 1.341957376e-01 -9.958241156e-01 2.143201776e+00 0.000000000e+00 0.000000000e+00 0.000000000e+00 0.000000000e+00
1.630000e+09 -7.806591144e-01 1.335140912e-01 -9.877516830e-01 2.132326662e+00 0.000000000e+00 0.000000000e+00 0.000000000e+00 0.000000000e+00
1.640000e+09 -7.801620735e-01 1.328379178e-01 -9.798068950e-01 2.121539100e+00 0.000000000e+00 0.000000000e+00 0.000000000e+00 0.000000000e+00
1.650000e+09 -7.796728636e-01 1.321671709e-01 -9.719871871e-01 2.110838346e+00 0.000000000e+00 0.000000000e+00 0.000000000e+00 0.000000000e+00
1.660000e+09 -7.791913279e-01 1.315018038e-01 -9.642900558e-01 2.100223656e+00 0.000000000e+00 0.000000000e+00 0.000000000e+00 0.000000000e+00
1.670000e+09 -7.787173132e-01 1.308417696e-01 -9.567130569e-01 2.089694283e+00 0.000000000e+00 0.000000000e+00 0.000000000e+00 0.000000000e+00
1.680000e+09 -7.782506698e-01 1.301870215e-01 -9.492538044e-01 2.079249479e+00 0.000000000e+00 0.000000000e+00 0.000000000e+00 0.000000000e+00
1.690000e+09 -7.777912519e-01 1.295375127e-01 -9.419099684e-01 2.068888497e+00 0.000000000e+00 0.000000000e+00 0.000000000e+00 0.000000000e+00
1.700000e+09 -7.773389167e-01 1.288931961e-01 -9.346792739e-01 2.058610588e+00 0.000000000e+00 0.000000000e+00 0.000000000e+00 0.000000000e+00
1.710000e+09 -7.768935249e-01 1.282540251e-01 -9.275594994e-01 2.048415005e+00 0.000000000e+00 0.000000000e+00 0.000000000e+00 0.000000000e+00
1.720000e+09 -7.764549407e-01 1.276199526e-01 -9.205484753e-01 2.038301000e+00 0.000000000e+00 0.000000000e+00 0.000000000e+00 0.000000000e+00
1.730000e+09 -7.760230311e-01 1.269909321e-01 -9.136440825e-01 2.028267828e+00 0.000000000e+00 0.000000000e+00 0.000000000e+00 0.000000000e+00
1.740000e+09 -7.755976664e-01 1.263669168e-01 -9.068442514e-01 2.018314745e+00 0.000000000e+00 0.000000000e+00 0.000000000e+00 0.000000000e+00
1.750000e+09 -7.751787199e-01 1.257478604e-01 -9.001469602e-01 2.008441009e+00 0.000000000e+00 0.000000000e+00 0.000000000e+00 0.000000000e+00
1.760000e+09 -7.747660676e-01 1.251337164e-01 -8.935502338e-01 1.998645880e+00 0.000000000e+00 0.000000000e+00 0.000000000e+00 0.000000000e+00
1.770000e+09 -7.743595886e-01 1.245244387e-01 -8.870521427e-01 1.988928622e+00 0.000000000e+00 0.000000000e+00 0.000000000e+00 0.000000000e+00
1.780000e+09 -7.739591648e-01 1.239199812e-01 -8.806508016e-01 1.979288501e+00 0.000000000e+00 0.000000000e+00 0.000000000e+00 0.000000000e+00
1.790000e+09 -7.735646805e-01 1.233202982e-01 -8.743443684e-01 1.969724786e+00 0.000000000e+00 0.000000000e+00 0.000000000e+00 0.000000000e+00
1.800000e+09 -7.731760229e-01 1.227253442e-01 -8.681310431e-01 1.960236750e+00 0.000000000e+00 0.000000000e+00 0.000000000e+00 0.000000000e+00
1.810000e+09 -7.727930817e-01 1.221350738e-01 -8.620090664e-01 1.950823668e+00 0.000000000e+00 0.000000000e+00 0.000000000e+00 0.000000000e+00
1.820000e+09 -7.724157491e-01 1.215494418e-01 -8.559767192e-01 1.941484822e+00 0.000000000e+00 0.000000000e+00 0.000000000e+00 0.000000000e+00
1.830000e+09 -7.720439196e-01 1.209684036e-01 -8.500323208e-01 1.932219496e+00 0.000000000e+00 0.000000000e+00 0.000000000e+00 0.000000000e+00
1.840000e+09 -7.716774903e-01 1.203919144e-01 -8.441742288e-01 1.923026979e+00 0.000000000e+00 0.000000000e+00 0.000000000e+00 0.000000000e+00
1.850000e+09 -7.713163603e-01 1.198199301e-01 -8.384008374e-01 1.913906563e+00 0.000000000e+00 0.000000000e+00 0.000000000e+00 0.000000000e+00
1.860000e+09 -7.709604313e-01 1.192524067e-01 -8.327105768e-01 1.904857548e+00 0.000000000e+00 0.000000000e+00 0.000000000e+00 0.000000000e+00
1.870000e+09 -7.706096069e-01 1.186893004e-01 -8.271019122e-01 1.895879234e+00 0.000000000e+00 0.000000000e+00 0.000000000e+00 0.000000000e+00
1.880000e+09 -7.702637931e-01 1.181305680e-01 -8.215733428e-01 1.886970930e+00 0.000000000e+00 0.000000000e+00 0.000000000e+00 0.000000000e+00
1.890000e+09 -7.699228977e-01 1.175761663e-01 -8.161234012e-01 1.878131949e+00 0.000000000e+00 0.000000000e+00 0.000000000e+00 0.000000000e+00
1.900000e+09 -7.695868306e-01 1.170260527e-01 -8.107506524e-01 1.869361608e+00 0.000000000e+00 0.000000000e+00 0.000000000e+00 0.000000000e+00
1.910000e+09 -7.692555039e-01 1.164801847e-01 -8.054536928e-01 1.860659229e+00 0.000000000e+00 0.000000000e+00 0.000000000e+00 0.000000000e+00
1.920000e+09 -7.689288314e-01 1.159385202e-01 -8.002311498e-01 1.852024142e+00 0.000000000e+00 0.000000000e+00 0.000000000e+00 0.000000000e+00
1.930000e+09 -7.686067289e-01 1.154010176e-01 -7.950816807e-01 1.843455680e+00 0.000000000e+00 0.000000000e+00 0.000000000e+00 0.000000000e+00
1.940000e+09 -7.682891138e-01 1.148676355e-01 -7.900039721e-01 1.834953181e+00 0.000000000e+00 0.000000000e+00 0.000000000e+00 0.000000000e+00
1.950000e+09 -7.679759056e-01 1.143383328e-01 -7.849967389e-01 1.826515991e+00 0.000000000e+00 0.000000000e+00 0.000000000e+00 0.000000000e+00
1.960000e+09 -7.676670253e-01 1.138130688e-01 -7.800587242e-01 1.818143459e+00 0.000000000e+00 0.000000000e+00 0.000000000e+00 0.000000000e+00
1.970000e+09 -7.673623958e-01 1.132918033e-01 -7.751886979e-01 1.809834942e+00 0.000000000e+00 0.000000000e+00 0.000000000e+00 0.000000000e+00
1.980000e+09 -7.670619415e-01 1.127744963e-01 -7.703854564e-01 1.801589801e+00 0.000000000e+00 0.000000000e+00 0.000000000e+00 0.000000000e+00
1.990000e+09 -7.667655884e-01 1.122611081e-01 -7.656478221e-01 1.793407404e+00 0.000000000e+00 0.000000000e+00 0.000000000e+00 0.000000000e+00
2.000000e+09 -7.664732642e-01 1.117515996e-01 -7.609746422e-01 1.785287122e+00 0.000000000e+00 0.000000000e+00 0.000000000e+00 0.000000000e+00
2.010000e+09 -7.661848980e-01 1.112459319e-01 -7.563647888e-01 1.777228336e+00 0.000000000e+00 0.000000000e+00 0.000000000e+00 0.000000000e+00
2.020000e+09 -7.659004206e-01 1.107440665e-01 -7.518171576e-01 1.769230429e+00 0.000000000e+00 0.000000000e+00 0.000000000e+00 0.000000000e+00
2.030000e+09 -7.656197640e-01 1.102459651e-01 -7.473306678e-01 1.761292792e+00 0.000000000e+00 0.000000000e+00 0.000000000e+00 0.000000000e+00
2.040000e+09 -7.653428619e-01 1.097515902e-01 -7.429042614e-01 1.753414821e+00 0.000000000e+00 0.000000000e+00 0.000000000e+00 0.000000000e+00
2.050000e+09 -7.650696490e-01 1.092609042e-01 -7.385369027e-01 1.745595919e+00 0.000000000e+00 0.000000000e+00 0.000000000e+00 0.000000000e+00
2.060000e+09 -7.648000618e-01 1.087738701e-01 -7.342275773e-01 1.737835492e+00 0.000000000e+00 0.000000000e+00 0.000000000e+00 0.000000000e+00
2.070000e+09 -7.645340379e-01 1.082904513e-01 -7.299752923e-01 1.730132955e+00 0.000000000e+00 0.000000000e+00 0.000000000e+00 0.000000000e+00
2.080000e+09 -7.642715162e-01 1.078106114e-01 -7.257790755e-01 1.722487727e+00 0.000000000e+00 0.000000000e+00 0.000000000e+00 0.000000000e+00
2.090000e+09 -7.640124368e-01 1.073343146e-01 -7.216379745e-01 1.714899233e+00 0.000000000e+00 0.000000000e+00 0.000000000e+00 0.000000000e+00
2.100000e+09 -7.637567412e-01 1.068615252e-01 -7.175510568e-01 1.707366904e+00 0.000000000e+00 0.000000000e+00 0.000000000e+00 0.000000000e+00
2.110000e+09 -7.635043720e-01 1.063922081e-01 -7.135174091e-01 1.699890178e+00 0.000000000e+00 0.000000000e+00 0.000000000e+00 0.000000000e+00
2.120000e+09 -7.632552729e-01 1.059263284e-01 -7.095361367e-01 1.692468496e+00 0.000000000e+00 0.000000000e+00 0.000000000e+00 0.000000000e+00
2.130000e+09 -7.630093889e-01 1.054638517e-01 -7.056063633e-01 1.685101308e+00 0.000000000e+00 0.000000000e+00 0.000000000e+00 0.000000000e+00
2.140000e+09 -7.627666661e-01 1.050047438e-01 -7.017272304e-01 1.677788066e+00 0.000000000e+00 0.000000000e+00 0.000000000e+00 0.000000000e+00
2.150000e+09 -7.625270515e-01 1.045489710e-01 -6.978978970e-01 1.670528231e+00 0.000000000e+00 0.000000000e+00 0.000000000e+00 0.000000000e+00
2.160000e+09 -7.622904934e-01 1.040964998e-01 -6.941175389e-01 1.663321268e+00 0.000000000e+00 0.000000000e+00 0.000000000e+00 0.000000000e+00
2.170000e+09 -7.620569410e-01 1.036472974e-01 -6.903853488e-01 1.656166647e+00 0.000000000e+00 0.000000000e+00 0.000000000e+00 0.000000000e+00
2.180000e+09 -7.618263445e-01 1.032013309e-01 -6.867005354e-01 1.649063846e+00 0.000000000e+00 0.000000000e+00 0.000000000e+00 0.000000000e+00
2.190000e+09 -7.615986553e-01 1.027585680e-01 -6.830623234e-01 1.642012347e+00 0.000000000e+00 0.000000000e+00 0.000000000e+00 0.000000000e+00
2.200000e+09 -7.613738255e-01 1.023189768e-01 -6.794699529e-01 1.635011637e+00 0.000000000e+00 0.000000000e+00 0.000000000e+00 0.000000000e+00
2.210000e+09 -7.611518083e-01 1.018825256e-01 -6.759226792e-01 1.628061209e+00 0.000000000e+00 0.000000000e+00 0.000000000e+00 0.000000000e+00
2.220000e+09 -7.609325579e-01 1.014491831e-01 -6.724197722e-01 1.621160562e+00 0.000000000e+00 0.000000000e+00 0.000000000e+00 0.000000000e+00
2.230000e+09 -7.607160291e-01 1.010189185e-01 -6.689605164e-01 1.614309200e+00 0.000000000e+00 0.000000000e+00 0.000000000e+00 0.000000000e+00
2.240000e+09 -7.605021779e-01 1.005917010e-01 -6.655442102e-01 1.607506632e+00 0.000000000e+00 0.000000000e+00 0.000000000e+00 0.000000000e+00
2.250000e+09 -7.602909610e-01 1.001675004e-01 -6.621701660e-01 1.600752373e+00 0.000000000e+00 0.000000000e+00 0.000000000e+00 0.000000000e+00
2.260000e+09 -7.600823360e-01 9.974628679e-02 -6.588377095e-01 1.594045943e+00 0.000000000e+00 0.000000000e+00 0.000000000e+00 0.000000000e+00
2.270000e+09 -7.598762614e-01 9.932803056e-02 -6.555461795e-01 1.587386866e+00 0.000000000e+00 0.000000000e+00 0.000000000e+00 0.000000000e+00
2.280000e+09 -7.596726963e-01 9.891270244e-02 -6.522949278e-01 1.580774674e+00 0.000000000e+00 0.000000000e+00 0.000000000e+00 0.000000000e+00
2.290000e+09 -7.594716007e-01 9.850027349e-02 -6.490833186e-01 1.574208901e+00 0.000000000e+00 0.000000000e+00 0.000000000e+00 0.000000000e+00
2.300000e+09 -7.592729354e-01 9.809071508e-02 -6.459107284e-01 1.567689089e+00 0.000000000e+00 0.000000000e+00 0.000000000e+00 0.000000000e+00
2.310000e+09 -7.590766619e-01 9.768399892e-02 -6.427765458e-01 1.561214783e+00 0.000000000e+00 0.000000000e+00 0.000000000e+00 0.000000000e+00
2.320000e+09 -7.588827426e-01 9.728009702e-02 -6.396801711e-01 1.554785534e+00 0.000000000e+00 0.000000000e+00 0.000000000e+00 0.000000000e+00
2.330000e+09 -7.586911403e-01 9.687898174e-02 -6.366210158e-01 1.548400898e+00 0.000000000e+00 0.000000000e+00 0.000000000e+00 0.000000000e+00
2.340000e+09 -7.585018188e-01 9.648062571e-02 -6.335985029e-01 1.542060435e+00 0.000000000e+00 0.000000000e+00 0.000000000e+00 0.000000000e+00
2.350000e+09 -7.583147424e-01 9.608500190e-02 -6.306120662e-01 1.535763710e+00 0.000000000e+00 0.000000000e+00 0.000000000e+00 0.000000000e+00
2.360000e+09 -7.581298761e-01 9.569208357e-02 -6.276611503e-01 1.529510295e+00 0.000000000e+00 0.000000000e+00 0.000000000e+00 0.000000000e+00
2.370000e+09 -7.579471857e-01 9.530184429e-02 -6.247452101e-01 1.523299764e+00 0.000000000e+00 0.000000000e+00 0.000000000e+00 0.000000000e+00
2.380000e+09 -7.577666376e-01 9.491425793e-02 -6.218637109e-01 1.517131696e+00 0.000000000e+00 0.000000000e+00 0.000000000e+00 0.000000000e+00
2.390000e+09 -7.575881986e-01 9.452929867e-02 -6.190161278e-01 1.511005678e+00 0.000000000e+00 0.000000000e+00 0.000000000e+00 0.000000000e+00
2.400000e+09 -7.574118364e-01 9.414694096e-02 -6.162019461e-01 1.504921297e+00 0.000000000e+00 0.000000000e+00 0.000000000e+00 0.000000000e+00
2.410000e+09 -7.572375191e-01 9.376715956e-02 -6.134206601e-01 1.498878147e+00 0.000000000e+00 0.000000000e+00 0.000000000e+00 0.000000000e+00
2.420000e+09 -7.570652156e-01 9.338992953e-02 -6.106717740e-01 1.492875827e+00 0.000000000e+00 0.000000000e+00 0.000000000e+00 0.000000000e+00
2.430000e+09 -7.568948951e-01 9.301522617e-02 -6.079548007e-01 1.486913940e+00 0.000000000e+00 0.000000000e+00 0.000000000e+00 0.000000000e+00
2.440000e+09 -7.567265277e-01 9.264302513e-02 -6.052692623e-01 1.480992093e+00 0.000000000e+00 0.000000000e+00 0.000000000e+00 0.000000000e+00
2.450000e+09 -7.565600838e-01 9.227330227e-02 -6.026146898e-01 1.475109897e+00 0.000000000e+00 0.000000000e+00 0.000000000e+00 0.000000000e+00
2.460000e+09 -7.563955343e-01 9.190603378e-02 -5.999906224e-01 1.469266969e+00 0.000000000e+00 0.000000000e+00 0.000000000e+00 0.000000000e+00
2.470000e+09 -7.562328509e-01 9.154119610e-02 -5.973966080e-01 1.463462928e+00 0.000000000e+00 0.000000000e+00 0.000000000e+00 0.000000000e+00
2.480000e+09 -7.560720055e-01 9.117876595e-02 -5.948322025e-01 1.457697401e+00 0.000000000e+00 0.000000000e+00 0.000000000e+00 0.000000000e+00
2.490000e+09 -7.559129709e-01 9.081872030e-02 -5.922969700e-01 1.451970014e+00 0.000000000e+00 0.000000000e+00 0.000000000e+00 0.000000000e+00
2.500000e+09 -7.557557199e-01 9.046103641e-02 -5.897904822e-01 1.446280402e+00 0.000000000e+00 0.000000000e+00 0.000000000e+00 0.000000000e+00
2.510000e+09 -7.556002261e-01 9.010569178e-02 -5.873123189e-01 1.440628201e+00 0.000000000e+00 0.000000000e+00 0.000000000e+00 0.000000000e+00
2.520000e+09 -7.554464637e-01 8.975266418e-02 -5.848620670e-01 1.435013053e+00 0.000000000e+00 0.000000000e+00 0.000000000e+00 0.000000000e+00
2.530000e+09 -7.552944069e-01 8.940193165e-02 -5.824393211e-01 1.429434603e+00 0.000000000e+00 0.000000000e+00 0.000000000e+00 0.000000000e+00
2.540000e+09 -7.551440309e-01 8.905347245e-02 -5.800436827e-01 1.423892500e+00 0.000000000e+00 0.000000000e+00 0.000000000e+00 0.000000000e+00
2.550000e+09 -7.549953110e-01 8.870726512e-02 -5.776747606e-01 1.418386396e+00 0.000000000e+00 0.000000000e+00 0.000000000e+00 0.000000000e+00
2.560000e+09 -7.548482230e-01 8.836328843e-02 -5.753321704e-01 1.412915951e+00 0.000000000e+00 0.000000000e+00 0.000000000e+00 0.000000000e+00
2.570000e+09 -7.547027431e-01 8.802152140e-02 -5.730155345e-01 1.407480823e+00 0.000000000e+00 0.000000000e+00 0.000000000e+00 0.000000000e+00
2.580000e+09 -7.545588480e-01 8.768194329e-02 -5.707244819e-01 1.402080678e+00 0.000000000e+00 0.000000000e+00 0.000000000e+00 0.000000000e+00
2.590000e+09 -7.544165149e-01 8.734453361e-02 -5.684586480e-01 1.396715185e+00 0.000000000e+00 0.000000000e+00 0.000000000e+00 0.000000000e+00
2.600000e+09 -7.542757212e-01 8.700927209e-02 -5.662176748e-01 1.391384015e+00 0.000000000e+00 0.000000000e+00 0.000000000e+00 0.000000000e+00
2.610000e+09 -7.541364447e-01 8.667613871e-02 -5.640012102e-01 1.386086844e+00 0.000000000e+00 0.000000000e+00 0.000000000e+00 0.000000000e+00
2.620000e+09 -7.539986637e-01 8.634511366e-02 -5.618089083e-01 1.380823353e+00 0.000000000e+00 0.000000000e+00 0.000000000e+00 0.000000000e+00
2.630000e+09 -7.538623570e-01 8.601617737e-02 -5.596404294e-01 1.375593223e+00 0.000000000e+00 0.000000000e+00 0.000000000e+00 0.000000000e+00
2.640000e+09 -7.537275034e-01 8.568931049e-02 -5.574954392e-01 1.370396142e+00 0.000000000e+00 0.000000000e+00 0.000000000e+00 0.000000000e+00
2.650000e+09 -7.535940824e-01 8.536449391e-02 -5.553736095e-01 1.365231800e+00 0.000000000e+00 0.000000000e+00 0.000000000e+00 0.000000000e+00
2.660000e+09 -7.534620737e-01 8.504170871e-02 -5.532746175e-01 1.360099890e+00 0.000000000e+00 0.000000000e+00 0.000000000e+00 0.000000000e+00
2.670000e+09 -7.533314574e-01 8.472093621e-02 -5.511981459e-01 1.355000110e+00 0.000000000e+00 0.000000000e+00 0.000000000e+00 0.000000000e+00
2.680000e+09 -7.532022139e-01 8.440215794e-02 -5.491438829e-01 1.349932160e+00 0.000000000e+00 0.000000000e+00 0.000000000e+00 0.000000000e+00
2.690000e+09 -7.530743240e-01 8.408535562e-02 -5.471115218e-01 1.344895744e+00 0.000000000e+00 0.000000000e+00 0.000000000e+00 0.000000000e+00
2.700000e+09 -7.529477687e-01 8.377051123e-02 -5.451007612e-01 1.339890569e+00 0.000000000e+00 0.000000000e+00 0.000000000e+00 0.000000000e+00
2.710000e+09 -7.528225295e-01 8.345760689e-02 -5.431113046e-01 1.334916345e+00 0.000000000e+00 0.000000000e+00 0.000000000e+00 0.000000000e+00
2.720000e+09 -7.526985881e-01 8.314662498e-02 -5.411428606e-01 1.329972787e+00 0.000000000e+00 0.000000000e+00 0.000000000e+00 0.000000000e+00
2.730000e+09 -7.525759265e-01 8.283754805e-02 -5.391951426e-01 1.325059610e+00 0.000000000e+00 0.000000000e+00 0.000000000e+00 0.000000000e+00
2.740000e+09 -7.524545271e-01 8.253035885e-02 -5.372678688e-01 1.320176535e+00 0.000000000e+00 0.000000000e+00 0.000000000e+00 0.000000000e+00
2.750000e+09 -7.523343726e-01 8.222504036e-02 -5.353607619e-01 1.315323285e+00 0.000000000e+00 0.000000000e+00 0.000000000e+00 0.000000000e+00
2.760000e+09 -7.522154457e-01 8.192157570e-02 -5.334735494e-01 1.310499586e+00 0.000000000e+00 0.000000000e+00 0.000000000e+00 0.000000000e+00
2.770000e+09 -7.520977299e-01 8.161994823e-02 -5.316059631e-01 1.305705167e+00 0.000000000e+00 0.000000000e+00 0.000000000e+00 0.000000000e+00
2.780000e+09 -7.519812085e-01 8.132014147e-02 -5.297577394e-01 1.300939761e+00 0.000000000e+00 0.000000000e+00 0.000000000e+00 0.000000000e+00
2.790000e+09 -7.518658653e-01 8.102213913e-02 -5.279286186e-01 1.296203103e+00 0.000000000e+00 0.000000000e+00 0.000000000e+00 0.000000000e+00
2.800000e+09 -7.517516845e-01 8.072592512e-02 -5.261183458e-01 1.291494930e+00 0.000000000e+00 0.000000000e+00 0.000000000e+00 0.000000000e+00
2.810000e+09 -7.516386502e-01 8.043148352e-02 -5.243266697e-01 1.286814985e+00 0.000000000e+00 0.000000000e+00 0.000000000e+00 0.000000000e+00
2.820000e+09 -7.515267471e-01 8.013879859e-02 -5.225533433e-01 1.282163011e+00 0.000000000e+00 0.000000000e+00 0.000000000e+00 0.000000000e+00
2.830000e+09 -7.514159601e-01 7.984785478e-02 -5.207981237e-01 1.277538755e+00 0.000000000e+00 0.000000000e+00 0.000000000e+00 0.000000000e+00
2.840000e+09 -7.513062741e-01 7.955863668e-02 -5.190607716e-01 1.272941966e+00 0.000000000e+00 0.000000000e+00 0.000000000e+00 0.000000000e+00
2.850000e+09 -7.511976745e-01 7.927112910e-02 -5.173410518e-01 1.268372396e+00 0.000000000e+00 0.000000000e+00 0.000000000e+00 0.000000000e+00
2.860000e+09 -7.510901468e-01 7.898531698e-02 -5.156387327e-01 1.263829802e+00 0.000000000e+00 0.000000000e+00 0.000000000e+00 0.000000000e+00
2.870000e+09 -7.509836770e-01 7.870118546e-02 -5.139535864e-01 1.259313940e+00 0.000000000e+00 0.000000000e+00 0.000000000e+00 0.000000000e+00
2.880000e+09 -7.508782509e-01 7.841871983e-02 -5.122853887e-01 1.254824571e+00 0.000000000e+00 0.000000000e+00 0.000000000e+00 0.000000000e+00
2.890000e+09 -7.507738549e-01 7.813790554e-02 -5.106339188e-01 1.250361458e+00 0.000000000e+00 0.000000000e+00 0.000000000e+00 0.000000000e+00
2.900000e+09 -7.506704755e-01 7.785872821e-02 -5.089989595e-01 1.245924367e+00 0.000000000e+00 0.000000000e+00 0.000000000e+00 0.000000000e+00
2.910000e+09 -7.505680993e-01 7.758117362e-02 -5.073802969e-01 1.241513066e+00 0.000000000e+00 0.000000000e+00 0.000000000e+00 0.000000000e+00
2.920000e+09 -7.504667133e-01 7.730522771e-02 -5.057777206e-01 1.237127327e+00 0.000000000e+00 0.000000000e+00 0.000000000e+00 0.000000000e+00
2.930000e+09 -7.503663047e-01 7.703087657e-02 -5.041910233e-01 1.232766921e+00 0.000000000e+00 0.000000000e+00 0.000000000e+00 0.000000000e+00
2.940000e+09 -7.502668606e-01 7.675810645e-02 -5.026200010e-01 1.228431626e+00 0.000000000e+00 0.000000000e+00 0.000000000e+00 0.000000000e+00
2.950000e+09 -7.501683688e-01 7.648690374e-02 -5.010644530e-01 1.224121220e+00 0.000000000e+00 0.000000000e+00 0.000000000e+00 0.000000000e+00
2.960000e+09 -7.500708170e-01 7.621725498e-02 -4.995241814e-01 1.219835482e+00 0.000000000e+00 0.000000000e+00 0.000000000e+00 0.000000000e+00
2.970000e+09 -7.499741930e-01 7.594914689e-02 -4.979989917e-01 1.215574198e+00 0.000000000e+00 0.000000000e+00 0.000000000e+00 0.000000000e+00
2.980000e+09 -7.498784850e-01 7.568256628e-02 -4.964886920e-01 1.211337151e+00 0.000000000e+00 0.000000000e+00 0.000000000e+00 0.000000000e+00
2.990000e+09 -7.497836815e-01 7.541750016e-02 -4.949930937e-01 1.207124130e+00 0.000000000e+00 0.000000000e+00 0.000000000e+00 0.000000000e+00
3.000000e+09 -7.496897707e-01 7.515393564e-02 -4.935120108e-01 1.202934925e+00 0.000000000e+00 0.000000000e+00 0.000000000e+00 0.000000000e+00
