! rfsim (KiCad + openEMS)
# HZ S RI R 50
5.000000e+08 -9.991069172e-01 2.664669473e-02 2.336755926e-04 5.145511799e-03 2.323251274e-04 5.074222415e-03 -9.994883452e-01 2.288846610e-02
5.100000e+08 -9.990776039e-01 2.718306273e-02 2.415242050e-04 5.249271868e-03 2.418719369e-04 5.175175958e-03 -9.994731979e-01 2.335053391e-02
5.200000e+08 -9.990475029e-01 2.771932624e-02 2.496169008e-04 5.353245074e-03 2.515153000e-04 5.276221912e-03 -9.994578115e-01 2.381219661e-02
5.300000e+08 -9.990166257e-01 2.825546300e-02 2.579505098e-04 5.457420596e-03 2.612461691e-04 5.377366542e-03 -9.994421879e-01 2.427346981e-02
5.400000e+08 -9.989849867e-01 2.879145310e-02 2.665209718e-04 5.561787775e-03 2.710563040e-04 5.478616041e-03 -9.994263288e-01 2.473437068e-02
5.500000e+08 -9.989526026e-01 2.932727916e-02 2.753234193e-04 5.666336236e-03 2.809382631e-04 5.579976526e-03 -9.994102359e-01 2.519491770e-02
5.600000e+08 -9.989194926e-01 2.986292643e-02 2.843522623e-04 5.771055996e-03 2.908853903e-04 5.681454039e-03 -9.993939107e-01 2.565513051e-02
5.700000e+08 -9.988856776e-01 3.039838285e-02 2.936012733e-04 5.875937560e-03 3.008918004e-04 5.783054539e-03 -9.993773545e-01 2.611502972e-02
5.800000e+08 -9.988511804e-01 3.093363914e-02 3.030636747e-04 5.980972000e-03 3.109523612e-04 5.884783900e-03 -9.993605687e-01 2.657463673e-02
5.900000e+08 -9.988160249e-01 3.146868881e-02 3.127322248e-04 6.086151031e-03 3.210626734e-04 5.986647909e-03 -9.993435545e-01 2.703397360e-02
6.000000e+08 -9.987802363e-01 3.200352819e-02 3.225993029e-04 6.191467067e-03 3.312190495e-04 6.088652260e-03 -9.993263127e-01 2.749306289e-02
6.100000e+08 -9.987438408e-01 3.253815638e-02 3.326569939e-04 6.296913270e-03 3.414184902e-04 6.190802551e-03 -9.993088444e-01 2.795192754e-02
6.200000e+08 -9.987068647e-01 3.307257530e-02 3.428971705e-04 6.402483588e-03 3.516586602e-04 6.293104284e-03 -9.992911502e-01 2.841059074e-02
6.300000e+08 -9.986693353e-01 3.360678956e-02 3.533115725e-04 6.508172786e-03 3.619378629e-04 6.395562858e-03 -9.992732308e-01 2.886907581e-02
6.400000e+08 -9.986312793e-01 3.414080643e-02 3.638918845e-04 6.613976464e-03 3.722550137e-04 6.498183569e-03 -9.992550867e-01 2.932740613e-02
6.500000e+08 -9.985927237e-01 3.467463576e-02 3.746298088e-04 6.719891066e-03 3.826096136e-04 6.600971604e-03 -9.992367183e-01 2.978560500e-02
6.600000e+08 -9.985536949e-01 3.520828987e-02 3.855171367e-04 6.825913889e-03 3.930017215e-04 6.703932044e-03 -9.992181258e-01 3.024369560e-02
6.700000e+08 -9.985142189e-01 3.574178345e-02 3.965458138e-04 6.932043075e-03 4.034319267e-04 6.807069855e-03 -9.991993093e-01 3.070170087e-02
6.800000e+08 -9.984743208e-01 3.627513343e-02 4.077080032e-04 7.038277600e-03 4.139013209e-04 6.910389893e-03 -9.991802688e-01 3.115964347e-02
6.900000e+08 -9.984340246e-01 3.680835886e-02 4.189961435e-04 7.144617262e-03 4.244114708e-04 7.013896896e-03 -9.991610043e-01 3.161754570e-02
7.000000e+08 -9.983933534e-01 3.734148075e-02 4.304030022e-04 7.251062654e-03 4.349643898e-04 7.117595490e-03 -9.991415154e-01 3.207542946e-02
7.100000e+08 -9.983523288e-01 3.787452192e-02 4.419217254e-04 7.357615141e-03 4.455625106e-04 7.221490180e-03 -9.991218018e-01 3.253331616e-02
7.200000e+08 -9.983109712e-01 3.840750688e-02 4.535458822e-04 7.464276827e-03 4.562086584e-04 7.325585354e-03 -9.991018630e-01 3.299122673e-02
7.300000e+08 -9.982692993e-01 3.894046160e-02 4.652695046e-04 7.571050519e-03 4.669060235e-04 7.429885284e-03 -9.990816985e-01 3.344918154e-02
7.400000e+08 -9.982273300e-01 3.947341344e-02 4.770871236e-04 7.677939693e-03 4.776581349e-04 7.534394120e-03 -9.990613075e-01 3.390720040e-02
7.500000e+08 -9.981850787e-01 4.000639087e-02 4.889937990e-04 7.784948446e-03 4.884688349e-04 7.639115895e-03 -9.990406893e-01 3.436530248e-02
7.600000e+08 -9.981425589e-01 4.053942339e-02 5.009851463e-04 7.892081460e-03 4.993422532e-04 7.744054525e-03 -9.990198429e-01 3.482350634e-02
7.700000e+08 -9.980997821e-01 4.107254132e-02 5.130573583e-04 7.999343952e-03 5.102827827e-04 7.849213807e-03 -9.989987672e-01 3.528182989e-02
7.800000e+08 -9.980567578e-01 4.160577565e-02 5.252072222e-04 8.106741628e-03 5.212950553e-04 7.954597422e-03 -9.989774613e-01 3.574029034e-02
7.900000e+08 -9.980134939e-01 4.213915784e-02 5.374321325e-04 8.214280638e-03 5.323839186e-04 8.060208935e-03 -9.989559239e-01 3.619890425e-02
8.000000e+08 -9.979699958e-01 4.267271969e-02 5.497301001e-04 8.321967524e-03 5.435544135e-04 8.166051798e-03 -9.989341537e-01 3.665768749e-02
8.100000e+08 -9.979262671e-01 4.320649315e-02 5.620997571e-04 8.429809173e-03 5.548117526e-04 8.272129349e-03 -9.989121493e-01 3.711665520e-02
8.200000e+08 -9.978823095e-01 4.374051019e-02 5.745403575e-04 8.537812771e-03 5.661612989e-04 8.378444817e-03 -9.988899093e-01 3.757582187e-02
8.300000e+08 -9.978381226e-01 4.427480262e-02 5.870517747e-04 8.645985749e-03 5.776085461e-04 8.485001320e-03 -9.988674320e-01 3.803520126e-02
8.400000e+08 -9.977937040e-01 4.480940197e-02 5.996344950e-04 8.754335742e-03 5.891590993e-04 8.591801870e-03 -9.988447160e-01 3.849480643e-02
8.500000e+08 -9.977490495e-01 4.534433931e-02 6.122896088e-04 8.862870538e-03 6.008186564e-04 8.698849375e-03 -9.988217594e-01 3.895464979e-02
8.600000e+08 -9.977041527e-01 4.587964516e-02 6.250187971e-04 8.971598035e-03 6.125929905e-04 8.806146643e-03 -9.987985606e-01 3.941474302e-02
8.700000e+08 -9.976590058e-01 4.641534934e-02 6.378243169e-04 9.080526197e-03 6.244879335e-04 8.913696378e-03 -9.987751176e-01 3.987509716e-02
8.800000e+08 -9.976135990e-01 4.695148085e-02 6.507089828e-04 9.189663010e-03 6.365093599e-04 9.021501192e-03 -9.987514286e-01 4.033572256e-02
8.900000e+08 -9.975679209e-01 4.748806774e-02 6.636761465e-04 9.299016444e-03 6.486631721e-04 9.129563601e-03 -9.987274916e-01 4.079662896e-02
9.000000e+08 -9.975219583e-01 4.802513707e-02 6.767296741e-04 9.408594413e-03 6.609552858e-04 9.237886030e-03 -9.987033046e-01 4.125782542e-02
9.100000e+08 -9.974756967e-01 4.856271474e-02 6.898739215e-04 9.518404739e-03 6.733916170e-04 9.346470817e-03 -9.986788656e-01 4.171932041e-02
9.200000e+08 -9.974291200e-01 4.910082545e-02 7.031137081e-04 9.628455119e-03 6.859780692e-04 9.455320216e-03 -9.986541723e-01 4.218112178e-02
9.300000e+08 -9.973822111e-01 4.963949259e-02 7.164542885e-04 9.738753090e-03 6.987205217e-04 9.564436397e-03 -9.986292227e-01 4.264323680e-02
9.400000e+08 -9.973349512e-01 5.017873822e-02 7.299013238e-04 9.849306002e-03 7.116248187e-04 9.673821455e-03 -9.986040145e-01 4.310567218e-02
9.500000e+08 -9.972873206e-01 5.071858294e-02 7.434608504e-04 9.960120991e-03 7.246967589e-04 9.783477407e-03 -9.985785454e-01 4.356843406e-02
9.600000e+08 -9.972392986e-01 5.125904593e-02 7.571392494e-04 1.007120495e-02 7.379420862e-04 9.893406200e-03 -9.985528132e-01 4.403152806e-02
9.700000e+08 -9.971908635e-01 5.180014480e-02 7.709432142e-04 1.018256452e-02 7.513664809e-04 1.000360971e-02 -9.985268156e-01 4.449495930e-02
9.800000e+08 -9.971419929e-01 5.234189565e-02 7.848797182e-04 1.029420605e-02 7.649755513e-04 1.011408976e-02 -9.985005501e-01 4.495873240e-02
9.900000e+08 -9.970926636e-01 5.288431300e-02 7.989559821e-04 1.040613560e-02 7.787748270e-04 1.022484809e-02 -9.984740144e-01 4.542285150e-02
1.000000e+09 -9.970428518e-01 5.342740976e-02 8.131794403e-04 1.051835891e-02 7.927697515e-04 1.033588640e-02 -9.984472061e-01 4.588732031e-02
1.010000e+09 -9.969925333e-01 5.397119727e-02 8.275577090e-04 1.063088139e-02 8.069656764e-04 1.044720633e-02 -9.984201228e-01 4.635214212e-02
1.020000e+09 -9.969416835e-01 5.451568524e-02 8.420985525e-04 1.074370813e-02 8.213678561e-04 1.055880946e-02 -9.983927619e-01 4.681731978e-02
1.030000e+09 -9.968902774e-01 5.506088180e-02 8.568098515e-04 1.085684386e-02 8.359814427e-04 1.067069733e-02 -9.983651210e-01 4.728285579e-02
1.040000e+09 -9.968382902e-01 5.560679351e-02 8.716995710e-04 1.097029297e-02 8.508114814e-04 1.078287144e-02 -9.983371976e-01 4.774875227e-02
1.050000e+09 -9.967856966e-01 5.615342535e-02 8.867757291e-04 1.108405952e-02 8.658629073e-04 1.089533323e-02 -9.983089892e-01 4.821501101e-02
1.060000e+09 -9.967324717e-01 5.670078078e-02 9.020463667e-04 1.119814717e-02 8.811405417e-04 1.100808413e-02 -9.982804933e-01 4.868163346e-02
1.070000e+09 -9.966785905e-01 5.724886175e-02 9.175195176e-04 1.131255927e-02 8.966490895e-04 1.112112551e-02 -9.982517073e-01 4.914862078e-02
1.080000e+09 -9.966240283e-01 5.779766876e-02 9.332031804e-04 1.142729881e-02 9.123931369e-04 1.123445871e-02 -9.982226287e-01 4.961597385e-02
1.090000e+09 -9.965687609e-01 5.834720090e-02 9.491052908e-04 1.154236843e-02 9.283771492e-04 1.134808506e-02 -9.981932550e-01 5.008369330e-02
1.100000e+09 -9.965127642e-01 5.889745587e-02 9.652336956e-04 1.165777045e-02 9.446054699e-04 1.146200584e-02 -9.981635836e-01 5.055177949e-02
1.110000e+09 -9.964560149e-01 5.944843009e-02 9.815961271e-04 1.177350684e-02 9.610823192e-04 1.157622232e-02 -9.981336120e-01 5.102023258e-02
1.120000e+09 -9.963984900e-01 6.000011870e-02 9.982001802e-04 1.188957927e-02 9.778117939e-04 1.169073575e-02 -9.981033375e-01 5.148905253e-02
1.130000e+09 -9.963401674e-01 6.055251568e-02 1.015053290e-03 1.200598909e-02 9.947978662e-04 1.180554736e-02 -9.980727578e-01 5.195823911e-02
1.140000e+09 -9.962810253e-01 6.110561386e-02 1.032162710e-03 1.212273738e-02 1.012044385e-03 1.192065837e-02 -9.980418702e-01 5.242779192e-02
1.150000e+09 -9.962210432e-01 6.165940503e-02 1.049535494e-03 1.223982491e-02 1.029555074e-03 1.203606997e-02 -9.980106723e-01 5.289771042e-02
1.160000e+09 -9.961602010e-01 6.221388001e-02 1.067178480e-03 1.235725219e-02 1.047333537e-03 1.215178338e-02 -9.979791614e-01 5.336799392e-02
1.170000e+09 -9.960984796e-01 6.276902869e-02 1.085098268e-03 1.247501951e-02 1.065383251e-03 1.226779977e-02 -9.979473350e-01 5.383864165e-02
1.180000e+09 -9.960358608e-01 6.332484014e-02 1.103301214e-03 1.259312688e-02 1.083707578e-03 1.238412034e-02 -9.979151908e-01 5.430965271e-02
1.190000e+09 -9.959723275e-01 6.388130270e-02 1.121793408e-03 1.271157414e-02 1.102309755e-03 1.250074627e-02 -9.978827261e-01 5.478102613e-02
1.200000e+09 -9.959078634e-01 6.443840399e-02 1.140580671e-03 1.283036090e-02 1.121192905e-03 1.261767874e-02 -9.978499386e-01 5.525276087e-02
1.210000e+09 -9.958424532e-01 6.499613108e-02 1.159668539e-03 1.294948661e-02 1.140360033e-03 1.273491895e-02 -9.978168256e-01 5.572485585e-02
1.220000e+09 -9.957760829e-01 6.555447050e-02 1.179062257e-03 1.306895055e-02 1.159814033e-03 1.285246809e-02 -9.977833849e-01 5.619730992e-02
1.230000e+09 -9.957087392e-01 6.611340836e-02 1.198766773e-03 1.318875186e-02 1.179557684e-03 1.297032738e-02 -9.977496139e-01 5.667012195e-02
1.240000e+09 -9.956404102e-01 6.667293040e-02 1.218786732e-03 1.330888956e-02 1.199593658e-03 1.308849802e-02 -9.977155102e-01 5.714329074e-02
1.250000e+09 -9.955710849e-01 6.723302212e-02 1.239126474e-03 1.342936258e-02 1.219924521e-03 1.320698125e-02 -9.976810715e-01 5.761681515e-02
1.260000e+09 -9.955007535e-01 6.779366878e-02 1.259790029e-03 1.355016975e-02 1.240552734e-03 1.332577831e-02 -9.976462954e-01 5.809069402e-02
1.270000e+09 -9.954294070e-01 6.835485555e-02 1.280781118e-03 1.367130985e-02 1.261480658e-03 1.344489046e-02 -9.976111795e-01 5.856492620e-02
1.280000e+09 -9.953570379e-01 6.891656753e-02 1.302103156e-03 1.379278160e-02 1.282710555e-03 1.356431899e-02 -9.975757215e-01 5.903951061e-02
1.290000e+09 -9.952836394e-01 6.947878989e-02 1.323759250e-03 1.391458373e-02 1.304244594e-03 1.368406521e-02 -9.975399191e-01 5.951444619e-02
1.300000e+09 -9.952092060e-01 7.004150787e-02 1.345752204e-03 1.403671492e-02 1.326084850e-03 1.380413043e-02 -9.975037700e-01 5.998973195e-02
1.310000e+09 -9.951337330e-01 7.060470689e-02 1.368084527e-03 1.415917391e-02 1.348233313e-03 1.392451600e-02 -9.974672719e-01 6.046536695e-02
1.320000e+09 -9.950572169e-01 7.116837259e-02 1.390758432e-03 1.428195942e-02 1.370691885e-03 1.404522332e-02 -9.974304227e-01 6.094135034e-02
1.330000e+09 -9.949796552e-01 7.173249095e-02 1.413775852e-03 1.440507027e-02 1.393462387e-03 1.416625378e-02 -9.973932201e-01 6.141768134e-02
1.340000e+09 -9.949010461e-01 7.229704829e-02 1.437138439e-03 1.452850530e-02 1.416546564e-03 1.428760882e-02 -9.973556619e-01 6.189435926e-02
1.350000e+09 -9.948213890e-01 7.286203134e-02 1.460847581e-03 1.465226347e-02 1.439946084e-03 1.440928993e-02 -9.973177460e-01 6.237138351e-02
1.360000e+09 -9.947406839e-01 7.342742734e-02 1.484904406e-03 1.477634380e-02 1.463662544e-03 1.453129859e-02 -9.972794702e-01 6.284875362e-02
1.370000e+09 -9.946589319e-01 7.399322403e-02 1.509309797e-03 1.490074544e-02 1.487697476e-03 1.465363635e-02 -9.972408325e-01 6.332646920e-02
1.380000e+09 -9.945761348e-01 7.455940974e-02 1.534064402e-03 1.502546767e-02 1.512052345e-03 1.477630480e-02 -9.972018308e-01 6.380453001e-02
1.390000e+09 -9.944922951e-01 7.512597343e-02 1.559168647e-03 1.515050990e-02 1.536728559e-03 1.489930554e-02 -9.971624630e-01 6.428293592e-02
1.400000e+09 -9.944074160e-01 7.569290470e-02 1.584622750e-03 1.527587169e-02 1.561727468e-03 1.502264024e-02 -9.971227271e-01 6.476168692e-02
1.410000e+09 -9.943215015e-01 7.626019389e-02 1.610426734e-03 1.540155276e-02 1.587050368e-03 1.514631059e-02 -9.970826211e-01 6.524078316e-02
1.420000e+09 -9.942345560e-01 7.682783203e-02 1.636580439e-03 1.552755299e-02 1.612698509e-03 1.527031834e-02 -9.970421431e-01 6.572022489e-02
1.430000e+09 -9.941465845e-01 7.739581096e-02 1.663083542e-03 1.565387247e-02 1.638673094e-03 1.539466527e-02 -9.970012911e-01 6.620001255e-02
1.440000e+09 -9.940575927e-01 7.796412329e-02 1.689935568e-03 1.578051145e-02 1.664975283e-03 1.551935323e-02 -9.969600633e-01 6.668014669e-02
1.450000e+09 -9.939675865e-01 7.853276243e-02 1.717135907e-03 1.590747040e-02 1.691606201e-03 1.564438409e-02 -9.969184577e-01 6.716062804e-02
1.460000e+09 -9.938765723e-01 7.910172267e-02 1.744683830e-03 1.603474996e-02 1.718566937e-03 1.576975977e-02 -9.968764725e-01 6.764145745e-02
1.470000e+09 -9.937845569e-01 7.967099910e-02 1.772578504e-03 1.616235102e-02 1.745858550e-03 1.589548228e-02 -9.968341059e-01 6.812263597e-02
1.480000e+09 -9.936915473e-01 8.024058771e-02 1.800819009e-03 1.629027465e-02 1.773482072e-03 1.602155362e-02 -9.967913561e-01 6.860416476e-02
1.490000e+09 -9.935975506e-01 8.081048534e-02 1.829404353e-03 1.641852215e-02 1.801438512e-03 1.614797590e-02 -9.967482213e-01 6.908604520e-02
1.500000e+09 -9.935025745e-01 8.138068969e-02 1.858333490e-03 1.654709505e-02 1.829728860e-03 1.627475124e-02 -9.967046998e-01 6.956827878e-02
1.510000e+09 -9.934066263e-01 8.195119937e-02 1.887605333e-03 1.667599507e-02 1.858354090e-03 1.640188185e-02 -9.966607898e-01 7.005086719e-02
1.520000e+09 -9.933097138e-01 8.252201383e-02 1.917218771e-03 1.680522418e-02 1.887315163e-03 1.652936998e-02 -9.966164898e-01 7.053381227e-02
1.530000e+09 -9.932118445e-01 8.309313340e-02 1.947172689e-03 1.693478457e-02 1.916613032e-03 1.665721792e-02 -9.965717980e-01 7.101711604e-02
1.540000e+09 -9.931130260e-01 8.366455926e-02 1.977465976e-03 1.706467863e-02 1.946248644e-03 1.678542806e-02 -9.965267127e-01 7.150078068e-02
1.550000e+09 -9.930132659e-01 8.423629343e-02 2.008097543e-03 1.719490899e-02 1.976222948e-03 1.691400281e-02 -9.964812324e-01 7.198480855e-02
1.560000e+09 -9.929125715e-01 8.480833876e-02 2.039066342e-03 1.732547849e-02 2.006536889e-03 1.704294467e-02 -9.964353556e-01 7.246920217e-02
1.570000e+09 -9.928109500e-01 8.538069892e-02 2.070371375e-03 1.745639019e-02 2.037191424e-03 1.717225619e-02 -9.963890805e-01 7.295396424e-02
1.580000e+09 -9.927084084e-01 8.595337836e-02 2.102011707e-03 1.758764735e-02 2.068187514e-03 1.730193997e-02 -9.963424056e-01 7.343909761e-02
1.590000e+09 -9.926049534e-01 8.652638228e-02 2.133986487e-03 1.771925343e-02 2.099526135e-03 1.743199870e-02 -9.962953295e-01 7.392460533e-02
1.600000e+09 -9.925005914e-01 8.709971664e-02 2.166294952e-03 1.785121211e-02 2.131208277e-03 1.756243511e-02 -9.962478506e-01 7.441049059e-02
1.610000e+09 -9.923953284e-01 8.767338810e-02 2.198936444e-03 1.798352724e-02 2.163234952e-03 1.769325202e-02 -9.961999675e-01 7.489675677e-02
1.620000e+09 -9.922891701e-01 8.824740399e-02 2.231910423e-03 1.811620287e-02 2.195607192e-03 1.782445230e-02 -9.961516786e-01 7.538340741e-02
1.630000e+09 -9.921821217e-01 8.882177230e-02 2.265216472e-03 1.824924324e-02 2.228326056e-03 1.795603890e-02 -9.961029824e-01 7.587044620e-02
1.640000e+09 -9.920741880e-01 8.939650163e-02 2.298854315e-03 1.838265274e-02 2.261392631e-03 1.808801483e-02 -9.960538776e-01 7.635787702e-02
1.650000e+09 -9.919653733e-01 8.997160115e-02 2.332823822e-03 1.851643593e-02 2.294808038e-03 1.822038317e-02 -9.960043627e-01 7.684570389e-02
1.660000e+09 -9.918556814e-01 9.054708056e-02 2.367125018e-03 1.865059754e-02 2.328573433e-03 1.835314707e-02 -9.959544363e-01 7.733393102e-02
1.670000e+09 -9.917451155e-01 9.112295009e-02 2.401758094e-03 1.878514243e-02 2.362690011e-03 1.848630977e-02 -9.959040970e-01 7.782256275e-02
1.680000e+09 -9.916336783e-01 9.169922039e-02 2.436723413e-03 1.892007561e-02 2.397159008e-03 1.861987455e-02 -9.958533433e-01 7.831160358e-02
1.690000e+09 -9.915213720e-01 9.227590255e-02 2.472021515e-03 1.905540221e-02 2.431981706e-03 1.875384480e-02 -9.958021739e-01 7.880105818e-02
1.700000e+09 -9.914081980e-01 9.285300804e-02 2.507653128e-03 1.919112748e-02 2.467159435e-03 1.888822395e-02 -9.957505874e-01 7.929093137e-02
1.710000e+09 -9.912941572e-01 9.343054866e-02 2.543619167e-03 1.932725679e-02 2.502693578e-03 1.902301553e-02 -9.956985823e-01 7.978122810e-02
1.720000e+09 -9.911792501e-01 9.400853650e-02 2.579920744e-03 1.946379559e-02 2.538585569e-03 1.915822314e-02 -9.956461573e-01 8.027195348e-02
1.730000e+09 -9.910634762e-01 9.458698390e-02 2.616559169e-03 1.960074944e-02 2.574836901e-03 1.929385044e-02 -9.955933110e-01 8.076311277e-02
1.740000e+09 -9.909468346e-01 9.516590342e-02 2.653535955e-03 1.973812397e-02 2.611449130e-03 1.942990119e-02 -9.955400420e-01 8.125471135e-02
1.750000e+09 -9.908293236e-01 9.574530777e-02 2.690852816e-03 1.987592488e-02 2.648423871e-03 1.956637923e-02 -9.954863488e-01 8.174675475e-02
1.760000e+09 -9.907109412e-01 9.632520980e-02 2.728511675e-03 2.001415792e-02 2.685762807e-03 1.970328845e-02 -9.954322302e-01 8.223924863e-02
1.770000e+09 -9.905916843e-01 9.690562241e-02 2.766514657e-03 2.015282891e-02 2.723467692e-03 1.984063284e-02 -9.953776846e-01 8.273219879e-02
1.780000e+09 -9.904715495e-01 9.748655859e-02 2.804864099e-03 2.029194370e-02 2.761540349e-03 1.997841647e-02 -9.953227106e-01 8.322561114e-02
1.790000e+09 -9.903505328e-01 9.806803128e-02 2.843562538e-03 2.043150817e-02 2.799982679e-03 2.011664350e-02 -9.952673067e-01 8.371949171e-02
1.800000e+09 -9.902286293e-01 9.865005342e-02 2.882612720e-03 2.057152823e-02 2.838796658e-03 2.025531815e-02 -9.952114716e-01 8.421384665e-02
1.810000e+09 -9.901058338e-01 9.923263785e-02 2.922017591e-03 2.071200980e-02 2.877984343e-03 2.039444472e-02 -9.951552037e-01 8.470868225e-02
1.820000e+09 -9.899821403e-01 9.981579731e-02 2.961780298e-03 2.085295881e-02 2.917547877e-03 2.053402762e-02 -9.950985015e-01 8.520400486e-02
1.830000e+09 -9.898575425e-01 1.003995444e-01 3.001904183e-03 2.099438117e-02 2.957489485e-03 2.067407133e-02 -9.950413635e-01 8.569982098e-02
1.840000e+09 -9.897320332e-01 1.009838915e-01 3.042392784e-03 2.113628281e-02 2.997811484e-03 2.081458039e-02 -9.949837881e-01 8.619613718e-02
1.850000e+09 -9.896056050e-01 1.015688508e-01 3.083249825e-03 2.127866961e-02 3.038516280e-03 2.095555946e-02 -9.949257737e-01 8.669296014e-02
1.860000e+09 -9.894782497e-01 1.021544344e-01 3.124479214e-03 2.142154746e-02 3.079606375e-03 2.109701326e-02 -9.948673187e-01 8.719029663e-02
1.870000e+09 -9.893499590e-01 1.027406537e-01 3.166085039e-03 2.156492219e-02 3.121084368e-03 2.123894661e-02 -9.948084213e-01 8.768815349e-02
1.880000e+09 -9.892207237e-01 1.033275203e-01 3.208071560e-03 2.170879961e-02 3.162952954e-03 2.138136439e-02 -9.947490800e-01 8.818653767e-02
1.890000e+09 -9.890905345e-01 1.039150452e-01 3.250443203e-03 2.185318549e-02 3.205214933e-03 2.152427160e-02 -9.946892930e-01 8.868545616e-02
1.900000e+09 -9.889593815e-01 1.045032391e-01 3.293204554e-03 2.199808554e-02 3.247873209e-03 2.166767329e-02 -9.946290584e-01 8.918491604e-02
1.910000e+09 -9.888272546e-01 1.050921123e-01 3.336360352e-03 2.214350545e-02 3.290930792e-03 2.181157463e-02 -9.945683743e-01 8.968492446e-02
1.920000e+09 -9.886941432e-01 1.056816749e-01 3.379915483e-03 2.228945082e-02 3.334390802e-03 2.195598084e-02 -9.945072390e-01 9.018548861e-02
1.930000e+09 -9.885600365e-01 1.062719364e-01 3.423874970e-03 2.243592722e-02 3.378256471e-03 2.210089725e-02 -9.944456504e-01 9.068661575e-02
1.940000e+09 -9.884249234e-01 1.068629060e-01 3.468243968e-03 2.258294017e-02 3.422531144e-03 2.224632927e-02 -9.943836066e-01 9.118831318e-02
1.950000e+09 -9.882887925e-01 1.074545923e-01 3.513027754e-03 2.273049510e-02 3.467218285e-03 2.239228239e-02 -9.943211053e-01 9.169058823e-02
1.960000e+09 -9.881516322e-01 1.080470039e-01 3.558231723e-03 2.287859740e-02 3.512321476e-03 2.253876219e-02 -9.942581445e-01 9.219344830e-02
1.970000e+09 -9.880134309e-01 1.086401484e-01 3.603861373e-03 2.302725241e-02 3.557844418e-03 2.268577434e-02 -9.941947219e-01 9.269690078e-02
1.980000e+09 -9.878741764e-01 1.092340334e-01 3.649922304e-03 2.317646539e-02 3.603790940e-03 2.283332457e-02 -9.941308352e-01 9.320095310e-02
1.990000e+09 -9.877338570e-01 1.098286659e-01 3.696420208e-03 2.332624154e-02 3.650164994e-03 2.298141873e-02 -9.940664821e-01 9.370561272e-02
2.000000e+09 -9.875924603e-01 1.104240525e-01 3.743360859e-03 2.347658604e-02 3.696970660e-03 2.313006272e-02 -9.940016600e-01 9.421088709e-02
2.010000e+09 -9.874499743e-01 1.110201994e-01 3.790750107e-03 2.362750396e-02 3.744212149e-03 2.327926256e-02 -9.939363664e-01 9.471678368e-02
2.020000e+09 -9.873063869e-01 1.116171123e-01 3.838593871e-03 2.377900037e-02 3.791893806e-03 2.342902432e-02 -9.938705986e-01 9.522330994e-02
2.030000e+09 -9.871616857e-01 1.122147966e-01 3.886898130e-03 2.393108026e-02 3.840020109e-03 2.357935417e-02 -9.938043539e-01 9.573047334e-02
2.040000e+09 -9.870158587e-01 1.128132571e-01 3.935668917e-03 2.408374860e-02 3.888595670e-03 2.373025836e-02 -9.937376295e-01 9.623828130e-02
2.050000e+09 -9.868688938e-01 1.134124985e-01 3.984912311e-03 2.423701030e-02 3.937625245e-03 2.388174321e-02 -9.936704223e-01 9.674674126e-02
2.060000e+09 -9.867207791e-01 1.140125250e-01 4.034634432e-03 2.439087025e-02 3.987113726e-03 2.403381513e-02 -9.936027293e-01 9.725586058e-02
2.070000e+09 -9.865715025e-01 1.146133404e-01 4.084841432e-03 2.454533330e-02 4.037066150e-03 2.418648061e-02 -9.935345473e-01 9.776564664e-02
2.080000e+09 -9.864210526e-01 1.152149482e-01 4.135539496e-03 2.470040431e-02 4.087487697e-03 2.433974622e-02 -9.934658730e-01 9.827610673e-02
2.090000e+09 -9.862694176e-01 1.158173517e-01 4.186734826e-03 2.485608808e-02 4.138383694e-03 2.449361860e-02 -9.933967029e-01 9.878724811e-02
2.100000e+09 -9.861165862e-01 1.164205539e-01 4.238433646e-03 2.501238945e-02 4.189759614e-03 2.464810447e-02 -9.933270336e-01 9.929907801e-02
2.110000e+09 -9.859625472e-01 1.170245574e-01 4.290642192e-03 2.516931322e-02 4.241621082e-03 2.480321061e-02 -9.932568614e-01 9.981160354e-02
2.120000e+09 -9.858072896e-01 1.176293648e-01 4.343366710e-03 2.532686424e-02 4.293973872e-03 2.495894390e-02 -9.931861823e-01 1.003248318e-01
2.130000e+09 -9.856508027e-01 1.182349783e-01 4.396613454e-03 2.548504733e-02 4.346823911e-03 2.511531126e-02 -9.931149925e-01 1.008387698e-01
2.140000e+09 -9.854930761e-01 1.188414002e-01 4.450388681e-03 2.564386737e-02 4.400177282e-03 2.527231971e-02 -9.930432878e-01 1.013534244e-01
2.150000e+09 -9.853340994e-01 1.194486323e-01 4.504698650e-03 2.580332927e-02 4.454040221e-03 2.542997632e-02 -9.929710640e-01 1.018688024e-01
2.160000e+09 -9.851738626e-01 1.200566767e-01 4.559549620e-03 2.596343798e-02 4.508419123e-03 2.558828823e-02 -9.928983167e-01 1.023849106e-01
2.170000e+09 -9.850123561e-01 1.206655352e-01 4.614947853e-03 2.612419849e-02 4.563320538e-03 2.574726263e-02 -9.928250413e-01 1.029017557e-01
2.180000e+09 -9.848495703e-01 1.212752097e-01 4.670899607e-03 2.628561587e-02 4.618751179e-03 2.590690680e-02 -9.927512330e-01 1.034193440e-01
2.190000e+09 -9.846854960e-01 1.218857020e-01 4.727411144e-03 2.644769524e-02 4.674717917e-03 2.606722805e-02 -9.926768869e-01 1.039376820e-01
2.200000e+09 -9.845201242e-01 1.224970141e-01 4.784488727e-03 2.661044183e-02 4.731227784e-03 2.622823377e-02 -9.926019981e-01 1.044567759e-01
2.210000e+09 -9.843534463e-01 1.231091480e-01 4.842138623e-03 2.677386093e-02 4.788287976e-03 2.638993139e-02 -9.925265611e-01 1.049766320e-01
2.220000e+09 -9.841854537e-01 1.237221058e-01 4.900367105e-03 2.693795795e-02 4.845905851e-03 2.655232839e-02 -9.924505707e-01 1.054972561e-01
2.230000e+09 -9.840161381e-01 1.243358897e-01 4.959180459e-03 2.710273838e-02 4.904088929e-03 2.671543231e-02 -9.923740212e-01 1.060186541e-01
2.240000e+09 -9.838454914e-01 1.249505024e-01 5.018584985e-03 2.726820786e-02 4.962844896e-03 2.687925073e-02 -9.922969067e-01 1.065408318e-01
2.250000e+09 -9.836735059e-01 1.255659464e-01 5.078587001e-03 2.743437213e-02 5.022181603e-03 2.704379126e-02 -9.922192214e-01 1.070637947e-01
2.260000e+09 -9.835001737e-01 1.261822249e-01 5.139192853e-03 2.760123706e-02 5.082107064e-03 2.720906157e-02 -9.921409589e-01 1.075875481e-01
2.270000e+09 -9.833254873e-01 1.267993410e-01 5.200408916e-03 2.776880866e-02 5.142629459e-03 2.737506936e-02 -9.920621130e-01 1.081120972e-01
2.280000e+09 -9.831494392e-01 1.274172984e-01 5.262241607e-03 2.793709310e-02 5.203757135e-03 2.754182234e-02 -9.919826771e-01 1.086374472e-01
2.290000e+09 -9.829720220e-01 1.280361010e-01 5.324697388e-03 2.810609669e-02 5.265498600e-03 2.770932828e-02 -9.919026443e-01 1.091636028e-01
2.300000e+09 -9.827932284e-01 1.286557534e-01 5.387782773e-03 2.827582590e-02 5.327862531e-03 2.787759496e-02 -9.918220077e-01 1.096905687e-01
2.310000e+09 -9.826130511e-01 1.292762601e-01 5.451504342e-03 2.844628736e-02 5.390857766e-03 2.804663017e-02 -9.917407602e-01 1.102183495e-01
2.320000e+09 -9.824314827e-01 1.298976266e-01 5.515868748e-03 2.861748787e-02 5.454493310e-03 2.821644173e-02 -9.916588941e-01 1.107469493e-01
2.330000e+09 -9.822485157e-01 1.305198584e-01 5.580882725e-03 2.878943440e-02 5.518778330e-03 2.838703747e-02 -9.915764021e-01 1.112763723e-01
2.340000e+09 -9.820641428e-01 1.311429618e-01 5.646553100e-03 2.896213409e-02 5.583722154e-03 2.855842522e-02 -9.914932762e-01 1.118066224e-01
2.350000e+09 -9.818783562e-01 1.317669434e-01 5.712886804e-03 2.913559427e-02 5.649334274e-03 2.873061282e-02 -9.914095084e-01 1.123377032e-01
2.360000e+09 -9.816911481e-01 1.323918106e-01 5.779890883e-03 2.930982242e-02 5.715624341e-03 2.890360811e-02 -9.913250904e-01 1.128696183e-01
2.370000e+09 -9.815025104e-01 1.330175711e-01 5.847572509e-03 2.948482622e-02 5.782602164e-03 2.907741891e-02 -9.912400138e-01 1.134023709e-01
2.380000e+09 -9.813124348e-01 1.336442332e-01 5.915938989e-03 2.966061352e-02 5.850277711e-03 2.925205303e-02 -9.911542698e-01 1.139359640e-01
2.390000e+09 -9.811209125e-01 1.342718057e-01 5.984997784e-03 2.983719235e-02 5.918661105e-03 2.942751828e-02 -9.910678496e-01 1.144704006e-01
2.400000e+09 -9.809279345e-01 1.349002981e-01 6.054756513e-03 3.001457090e-02 5.987762622e-03 2.960382243e-02 -9.909807440e-01 1.150056831e-01
2.410000e+09 -9.807334912e-01 1.355297204e-01 6.125222971e-03 3.019275754e-02 6.057592691e-03 2.978097322e-02 -9.908929437e-01 1.155418142e-01
2.420000e+09 -9.805375727e-01 1.361600831e-01 6.196405137e-03 3.037176079e-02 6.128161888e-03 2.995897836e-02 -9.908044393e-01 1.160787958e-01
2.430000e+09 -9.803401684e-01 1.367913973e-01 6.268311189e-03 3.055158934e-02 6.199480938e-03 3.013784554e-02 -9.907152208e-01 1.166166301e-01
2.440000e+09 -9.801412673e-01 1.374236746e-01 6.340949513e-03 3.073225202e-02 6.271560709e-03 3.031758238e-02 -9.906252784e-01 1.171553188e-01
2.450000e+09 -9.799408575e-01 1.380569272e-01 6.414328719e-03 3.091375782e-02 6.344412209e-03 3.049819646e-02 -9.905346019e-01 1.176948635e-01
2.460000e+09 -9.797389266e-01 1.386911678e-01 6.488457647e-03 3.109611583e-02 6.418046585e-03 3.067969529e-02 -9.904431810e-01 1.182352655e-01
2.470000e+09 -9.795354615e-01 1.393264094e-01 6.563345382e-03 3.127933530e-02 6.492475118e-03 3.086208634e-02 -9.903510052e-01 1.187765261e-01
2.480000e+09 -9.793304483e-01 1.399626658e-01 6.639001263e-03 3.146342557e-02 6.567709219e-03 3.104537699e-02 -9.902580636e-01 1.193186463e-01
2.490000e+09 -9.791238721e-01 1.405999509e-01 6.715434893e-03 3.164839607e-02 6.643760427e-03 3.122957457e-02 -9.901643455e-01 1.198616267e-01
2.500000e+09 -9.789157174e-01 1.412382791e-01 6.792656148e-03 3.183425634e-02 6.720640404e-03 3.141468629e-02 -9.900698398e-01 1.204054681e-01
2.510000e+09 -9.787059676e-01 1.418776654e-01 6.870675189e-03 3.202101597e-02 6.798360929e-03 3.160071933e-02 -9.899745352e-01 1.209501708e-01
2.520000e+09 -9.784946053e-01 1.425181248e-01 6.949502463e-03 3.220868462e-02 6.876933896e-03 3.178768072e-02 -9.898784203e-01 1.214957352e-01
2.530000e+09 -9.782816120e-01 1.431596727e-01 7.029148718e-03 3.239727197e-02 6.956371309e-03 3.197557744e-02 -9.897814837e-01 1.220421615e-01
2.540000e+09 -9.780669682e-01 1.438023248e-01 7.109625004e-03 3.258678774e-02 7.036685274e-03 3.216441632e-02 -9.896837136e-01 1.225894496e-01
2.550000e+09 -9.778506534e-01 1.444460969e-01 7.190942680e-03 3.277724164e-02 7.117888000e-03 3.235420413e-02 -9.895850984e-01 1.231375994e-01
2.560000e+09 -9.776326462e-01 1.450910050e-01 7.273113417e-03 3.296864337e-02 7.199991786e-03 3.254494750e-02 -9.894856260e-01 1.236866108e-01
2.570000e+09 -9.774129238e-01 1.457370652e-01 7.356149205e-03 3.316100259e-02 7.283009022e-03 3.273665293e-02 -9.893852847e-01 1.242364833e-01
2.580000e+09 -9.771914625e-01 1.463842934e-01 7.440062347e-03 3.335432893e-02 7.366952180e-03 3.292932681e-02 -9.892840623e-01 1.247872167e-01
2.590000e+09 -9.769682376e-01 1.470327059e-01 7.524865467e-03 3.354863190e-02 7.451833809e-03 3.312297541e-02 -9.891819467e-01 1.253388105e-01
2.600000e+09 -9.767432230e-01 1.476823184e-01 7.610571507e-03 3.374392094e-02 7.537666527e-03 3.331760484e-02 -9.890789257e-01 1.258912643e-01
2.610000e+09 -9.765163917e-01 1.483331469e-01 7.697193722e-03 3.394020539e-02 7.624463019e-03 3.351322110e-02 -9.889749873e-01 1.264445776e-01
2.620000e+09 -9.762877156e-01 1.489852068e-01 7.784745680e-03 3.413749442e-02 7.712236028e-03 3.370983004e-02 -9.888701192e-01 1.269987500e-01
2.630000e+09 -9.760571655e-01 1.496385135e-01 7.873241256e-03 3.433579706e-02 7.800998347e-03 3.390743734e-02 -9.887643092e-01 1.275537811e-01
2.640000e+09 -9.758247109e-01 1.502930819e-01 7.962694625e-03 3.453512216e-02 7.890762817e-03 3.410604857e-02 -9.886575453e-01 1.281096706e-01
2.650000e+09 -9.755903207e-01 1.509489264e-01 8.053120253e-03 3.473547835e-02 7.981542316e-03 3.430566914e-02 -9.885498153e-01 1.286664183e-01
2.660000e+09 -9.753539623e-01 1.516060612e-01 8.144532891e-03 3.493687406e-02 8.073349755e-03 3.450630429e-02 -9.884411072e-01 1.292240242e-01
2.670000e+09 -9.751156025e-01 1.522644997e-01 8.236947562e-03 3.513931749e-02 8.166198072e-03 3.470795914e-02 -9.883314093e-01 1.297824884e-01
2.680000e+09 -9.748752070e-01 1.529242547e-01 8.330379548e-03 3.534281655e-02 8.260100222e-03 3.491063862e-02 -9.882207096e-01 1.303418112e-01
2.690000e+09 -9.746327406e-01 1.535853384e-01 8.424844377e-03 3.554737889e-02 8.355069174e-03 3.511434755e-02 -9.881089967e-01 1.309019932e-01
2.700000e+09 -9.743881674e-01 1.542477624e-01 8.520357809e-03 3.575301188e-02 8.451117904e-03 3.531909056e-02 -9.879962592e-01 1.314630353e-01
2.710000e+09 -9.741414506e-01 1.549115372e-01 8.616935816e-03 3.595972256e-02 8.548259388e-03 3.552487215e-02 -9.878824857e-01 1.320249387e-01
2.720000e+09 -9.738925528e-01 1.555766728e-01 8.714594569e-03 3.616751766e-02 8.646506597e-03 3.573169670e-02 -9.877676655e-01 1.325877050e-01
2.730000e+09 -9.736414360e-01 1.562431780e-01 8.813350416e-03 3.637640358e-02 8.745872491e-03 3.593956840e-02 -9.876517879e-01 1.331513363e-01
2.740000e+09 -9.733880615e-01 1.569110608e-01 8.913219862e-03 3.658638637e-02 8.846370011e-03 3.614849134e-02 -9.875348424e-01 1.337158351e-01
2.750000e+09 -9.731323905e-01 1.575803283e-01 9.014219549e-03 3.679747172e-02 8.948012080e-03 3.635846947e-02 -9.874168191e-01 1.342812044e-01
2.760000e+09 -9.728743835e-01 1.582509865e-01 9.116366231e-03 3.700966498e-02 9.050811594e-03 3.656950663e-02 -9.872977083e-01 1.348474479e-01
2.770000e+09 -9.726140009e-01 1.589230402e-01 9.219676755e-03 3.722297112e-02 9.154781417e-03 3.678160653e-02 -9.871775008e-01 1.354145698e-01
2.780000e+09 -9.723512031e-01 1.595964935e-01 9.324168037e-03 3.743739476e-02 9.259934384e-03 3.699477279e-02 -9.870561878e-01 1.359825752e-01
2.790000e+09 -9.720859503e-01 1.602713491e-01 9.429857036e-03 3.765294015e-02 9.366283290e-03 3.720900895e-02 -9.869337610e-01 1.365514698e-01
2.800000e+09 -9.718182029e-01 1.609476086e-01 9.536760732e-03 3.786961120e-02 9.473840894e-03 3.742431845e-02 -9.868102126e-01 1.371212602e-01
2.810000e+09 -9.715479213e-01 1.616252727e-01 9.644896098e-03 3.808741145e-02 9.582619917e-03 3.764070471e-02 -9.866855352e-01 1.376919539e-01
2.820000e+09 -9.712750666e-01 1.623043409e-01 9.754280084e-03 3.830634411e-02 9.692633041e-03 3.785817106e-02 -9.865597223e-01 1.382635594e-01
2.830000e+09 -9.709996000e-01 1.629848116e-01 9.864929586e-03 3.852641209e-02 9.803892908e-03 3.807672084e-02 -9.864327677e-01 1.388360860e-01
2.840000e+09 -9.707214834e-01 1.636666822e-01 9.976861427e-03 3.874761795e-02 9.916412129e-03 3.829635738e-02 -9.863046659e-01 1.394095444e-01
2.850000e+09 -9.704406795e-01 1.643499490e-01 1.009009233e-02 3.896996402e-02 1.003020328e-02 3.851708402e-02 -9.861754123e-01 1.399839464e-01
2.860000e+09 -9.701571517e-01 1.650346073e-01 1.020463892e-02 3.919345234e-02 1.014527891e-02 3.873890416e-02 -9.860450028e-01 1.405593049e-01
2.870000e+09 -9.698708645e-01 1.657206516e-01 1.032051765e-02 3.941808473e-02 1.026165154e-02 3.896182127e-02 -9.859134340e-01 1.411356343e-01
2.880000e+09 -9.695817833e-01 1.664080754e-01 1.043774486e-02 3.964386281e-02 1.037933371e-02 3.918583889e-02 -9.857807034e-01 1.417129502e-01
2.890000e+09 -9.692898749e-01 1.670968714e-01 1.055633670e-02 3.987078806e-02 1.049833791e-02 3.941096074e-02 -9.856468093e-01 1.422912698e-01
2.900000e+09 -9.689951072e-01 1.677870317e-01 1.067630915e-02 4.009886185e-02 1.061867669e-02 3.963719067e-02 -9.855117507e-01 1.428706120e-01
2.910000e+09 -9.686974497e-01 1.684785476e-01 1.079767799e-02 4.032808544e-02 1.074036258e-02 3.986453274e-02 -9.853755275e-01 1.434509970e-01
2.920000e+09 -9.683968734e-01 1.691714099e-01 1.092045882e-02 4.055846013e-02 1.086340818e-02 4.009299127e-02 -9.852381404e-01 1.440324469e-01
2.930000e+09 -9.680933508e-01 1.698656091e-01 1.104466703e-02 4.078998721e-02 1.098782615e-02 4.032257082e-02 -9.850995912e-01 1.446149856e-01
2.940000e+09 -9.677868563e-01 1.705611352e-01 1.117031783e-02 4.102266807e-02 1.111362921e-02 4.055327632e-02 -9.849598823e-01 1.451986388e-01
2.950000e+09 -9.674773659e-01 1.712579783e-01 1.129742621e-02 4.125650428e-02 1.124083020e-02 4.078511304e-02 -9.848190172e-01 1.457834340e-01
2.960000e+09 -9.671648578e-01 1.719561281e-01 1.142600702e-02 4.149149758e-02 1.136944211e-02 4.101808666e-02 -9.846770001e-01 1.463694009e-01
2.970000e+09 -9.668493117e-01 1.726555746e-01 1.155607490e-02 4.172765005e-02 1.149947808e-02 4.125220337e-02 -9.845338363e-01 1.469565712e-01
2.980000e+09 -9.665307094e-01 1.733563080e-01 1.168764440e-02 4.196496409e-02 1.163095143e-02 4.148746982e-02 -9.843895318e-01 1.475449788e-01
2.990000e+09 -9.662090349e-01 1.740583189e-01 1.182072990e-02 4.220344254e-02 1.176387575e-02 4.172389329e-02 -9.842440936e-01 1.481346595e-01
3.000000e+09 -9.658842739e-01 1.747615984e-01 1.195534575e-02 4.244308876e-02 1.189826490e-02 4.196148167e-02 -9.840975296e-01 1.487256518e-01
