! rfsim (KiCad + openEMS)
# HZ S RI R 50
5.000000e+08 -8.153973456e-01 2.130301466e-02 -9.111362612e-01 1.165269175e-01 0.000000000e+00 0.000000000e+00 0.000000000e+00 0.000000000e+00
5.100000e+08 -8.154316095e-01 2.172894497e-02 -9.113236833e-01 1.188567314e-01 0.000000000e+00 0.000000000e+00 0.000000000e+00 0.000000000e+00
5.200000e+08 -8.154665556e-01 2.215486741e-02 -9.115148368e-01 1.211865014e-01 0.000000000e+00 0.000000000e+00 0.000000000e+00 0.000000000e+00
5.300000e+08 -8.155021842e-01 2.258078181e-02 -9.117097229e-01 1.235162267e-01 0.000000000e+00 0.000000000e+00 0.000000000e+00 0.000000000e+00
5.400000e+08 -8.155384954e-01 2.300668798e-02 -9.119083428e-01 1.258459062e-01 0.000000000e+00 0.000000000e+00 0.000000000e+00 0.000000000e+00
5.500000e+08 -8.155754894e-01 2.343258578e-02 -9.121106978e-01 1.281755391e-01 0.000000000e+00 0.000000000e+00 0.000000000e+00 0.000000000e+00
5.600000e+08 -8.156131666e-01 2.385847501e-02 -9.123167891e-01 1.305051244e-01 0.000000000e+00 0.000000000e+00 0.000000000e+00 0.000000000e+00
5.700000e+08 -8.156515272e-01 2.428435551e-02 -9.125266179e-01 1.328346611e-01 0.000000000e+00 0.000000000e+00 0.000000000e+00 0.000000000e+00
5.800000e+08 -8.156905713e-01 2.471022711e-02 -9.127401856e-01 1.351641482e-01 0.000000000e+00 0.000000000e+00 0.000000000e+00 0.000000000e+00
5.900000e+08 -8.157302993e-01 2.513608963e-02 -9.129574934e-01 1.374935849e-01 0.000000000e+00 0.000000000e+00 0.000000000e+00 0.000000000e+00
6.000000e+08 -8.157707113e-01 2.556194289e-02 -9.131785428e-01 1.398229700e-01 0.000000000e+00 0.000000000e+00 0.000000000e+00 0.000000000e+00
6.100000e+08 -8.158118077e-01 2.598778671e-02 -9.134033351e-01 1.421523027e-01 0.000000000e+00 0.000000000e+00 0.000000000e+00 0.000000000e+00
6.200000e+08 -8.158535887e-01 2.641362093e-02 -9.136318716e-01 1.444815820e-01 0.000000000e+00 0.000000000e+00 0.000000000e+00 0.000000000e+00
6.300000e+08 -8.158960545e-01 2.683944535e-02 -9.138641538e-01 1.468108068e-01 0.000000000e+00 0.000000000e+00 0.000000000e+00 0.000000000e+00
6.400000e+08 -8.159392055e-01 2.726525981e-02 -9.141001831e-01 1.491399762e-01 0.000000000e+00 0.000000000e+00 0.000000000e+00 0.000000000e+00
6.500000e+08 -8.159830418e-01 2.769106411e-02 -9.143399610e-01 1.514690892e-01 0.000000000e+00 0.000000000e+00 0.000000000e+00 0.000000000e+00
6.600000e+08 -8.160275638e-01 2.811685809e-02 -9.145834889e-01 1.537981448e-01 0.000000000e+00 0.000000000e+00 0.000000000e+00 0.000000000e+00
6.700000e+08 -8.160727718e-01 2.854264154e-02 -9.148307684e-01 1.561271420e-01 0.000000000e+00 0.000000000e+00 0.000000000e+00 0.000000000e+00
6.800000e+08 -8.161186659e-01 2.896841430e-02 -9.150818009e-01 1.584560797e-01 0.000000000e+00 0.000000000e+00 0.000000000e+00 0.000000000e+00
6.900000e+08 -8.161652466e-01 2.939417617e-02 -9.153365881e-01 1.607849569e-01 0.000000000e+00 0.000000000e+00 0.000000000e+00 0.000000000e+00
7.000000e+08 -8.162125140e-01 2.981992697e-02 -9.155951314e-01 1.631137727e-01 0.000000000e+00 0.000000000e+00 0.000000000e+00 0.000000000e+00
7.100000e+08 -8.162604686e-01 3.024566651e-02 -9.158574325e-01 1.654425259e-01 0.000000000e+00 0.000000000e+00 0.000000000e+00 0.000000000e+00
7.200000e+08 -8.163091105e-01 3.067139460e-02 -9.161234930e-01 1.677712155e-01 0.000000000e+00 0.000000000e+00 0.000000000e+00 0.000000000e+00
7.300000e+08 -8.163584402e-01 3.109711106e-02 -9.163933146e-01 1.700998406e-01 0.000000000e+00 0.000000000e+00 0.000000000e+00 0.000000000e+00
7.400000e+08 -8.164084578e-01 3.152281569e-02 -9.166668988e-01 1.724284000e-01 0.000000000e+00 0.000000000e+00 0.000000000e+00 0.000000000e+00
7.500000e+08 -8.164591638e-01 3.194850829e-02 -9.169442474e-01 1.747568927e-01 0.000000000e+00 0.000000000e+00 0.000000000e+00 0.000000000e+00
7.600000e+08 -8.165105583e-01 3.237418868e-02 -9.172253620e-01 1.770853176e-01 0.000000000e+00 0.000000000e+00 0.000000000e+00 0.000000000e+00
7.700000e+08 -8.165626418e-01 3.279985666e-02 -9.175102445e-01 1.794136736e-01 0.000000000e+00 0.000000000e+00 0.000000000e+00 0.000000000e+00
7.800000e+08 -8.166154146e-01 3.322551204e-02 -9.177988965e-01 1.817419598e-01 0.000000000e+00 0.000000000e+00 0.000000000e+00 0.000000000e+00
7.900000e+08 -8.166688770e-01 3.365115462e-02 -9.180913199e-01 1.840701749e-01 0.000000000e+00 0.000000000e+00 0.000000000e+00 0.000000000e+00
8.000000e+08 -8.167230294e-01 3.407678419e-02 -9.183875164e-01 1.863983179e-01 0.000000000e+00 0.000000000e+00 0.000000000e+00 0.000000000e+00
8.100000e+08 -8.167778720e-01 3.450240056e-02 -9.186874879e-01 1.887263877e-01 0.000000000e+00 0.000000000e+00 0.000000000e+00 0.000000000e+00
8.200000e+08 -8.168334052e-01 3.492800354e-02 -9.189912361e-01 1.910543833e-01 0.000000000e+00 0.000000000e+00 0.000000000e+00 0.000000000e+00
8.300000e+08 -8.168896293e-01 3.535359291e-02 -9.192987630e-01 1.933823034e-01 0.000000000e+00 0.000000000e+00 0.000000000e+00 0.000000000e+00
8.400000e+08 -8.169465448e-01 3.577916847e-02 -9.196100705e-01 1.957101470e-01 0.000000000e+00 0.000000000e+00 0.000000000e+00 0.000000000e+00
8.500000e+08 -8.170041519e-01 3.620473001e-02 -9.199251604e-01 1.980379129e-01 0.000000000e+00 0.000000000e+00 0.000000000e+00 0.000000000e+00
8.600000e+08 -8.170624510e-01 3.663027734e-02 -9.202440347e-01 2.003656001e-01 0.000000000e+00 0.000000000e+00 0.000000000e+00 0.000000000e+00
8.700000e+08 -8.171214425e-01 3.705581024e-02 -9.205666954e-01 2.026932073e-01 0.000000000e+00 0.000000000e+00 0.000000000e+00 0.000000000e+00
8.800000e+08 -8.171811268e-01 3.748132851e-02 -9.208931444e-01 2.050207335e-01 0.000000000e+00 0.000000000e+00 0.000000000e+00 0.000000000e+00
8.900000e+08 -8.172415042e-01 3.790683192e-02 -9.212233837e-01 2.073481775e-01 0.000000000e+00 0.000000000e+00 0.000000000e+00 0.000000000e+00
9.000000e+08 -8.173025750e-01 3.833232028e-02 -9.215574154e-01 2.096755380e-01 0.000000000e+00 0.000000000e+00 0.000000000e+00 0.000000000e+00
9.100000e+08 -8.173643397e-01 3.875779336e-02 -9.218952416e-01 2.120028141e-01 0.000000000e+00 0.000000000e+00 0.000000000e+00 0.000000000e+00
9.200000e+08 -8.174267987e-01 3.918325096e-02 -9.222368642e-01 2.143300043e-01 0.000000000e+00 0.000000000e+00 0.000000000e+00 0.000000000e+00
9.300000e+08 -8.174899523e-01 3.960869285e-02 -9.225822853e-01 2.166571077e-01 0.000000000e+00 0.000000000e+00 0.000000000e+00 0.000000000e+00
9.400000e+08 -8.175538010e-01 4.003411882e-02 -9.229315072e-01 2.189841230e-01 0.000000000e+00 0.000000000e+00 0.000000000e+00 0.000000000e+00
9.500000e+08 -8.176183450e-01 4.045952864e-02 -9.232845319e-01 2.213110490e-01 0.000000000e+00 0.000000000e+00 0.000000000e+00 0.000000000e+00
9.600000e+08 -8.176835849e-01 4.088492210e-02 -9.236413617e-01 2.236378844e-01 0.000000000e+00 0.000000000e+00 0.000000000e+00 0.000000000e+00
9.700000e+08 -8.177495210e-01 4.131029897e-02 -9.240019986e-01 2.259646282e-01 0.000000000e+00 0.000000000e+00 0.000000000e+00 0.000000000e+00
9.800000e+08 -8.178161537e-01 4.173565904e-02 -9.243664449e-01 2.282912790e-01 0.000000000e+00 0.000000000e+00 0.000000000e+00 0.000000000e+00
9.900000e+08 -8.178834835e-01 4.216100206e-02 -9.247347028e-01 2.306178356e-01 0.000000000e+00 0.000000000e+00 0.000000000e+00 0.000000000e+00
1.000000e+09 -8.179515108e-01 4.258632782e-02 -9.251067746e-01 2.329442967e-01 0.000000000e+00 0.000000000e+00 0.000000000e+00 0.000000000e+00
1.010000e+09 -8.180202359e-01 4.301163609e-02 -9.254826626e-01 2.352706612e-01 0.000000000e+00 0.000000000e+00 0.000000000e+00 0.000000000e+00
1.020000e+09 -8.180896594e-01 4.343692664e-02 -9.258623690e-01 2.375969278e-01 0.000000000e+00 0.000000000e+00 0.000000000e+00 0.000000000e+00
1.030000e+09 -8.181597815e-01 4.386219922e-02 -9.262458962e-01 2.399230951e-01 0.000000000e+00 0.000000000e+00 0.000000000e+00 0.000000000e+00
1.040000e+09 -8.182306029e-01 4.428745362e-02 -9.266332466e-01 2.422491620e-01 0.000000000e+00 0.000000000e+00 0.000000000e+00 0.000000000e+00
1.050000e+09 -8.183021239e-01 4.471268959e-02 -9.270244224e-01 2.445751271e-01 0.000000000e+00 0.000000000e+00 0.000000000e+00 0.000000000e+00
1.060000e+09 -8.183743449e-01 4.513790689e-02 -9.274194262e-01 2.469009892e-01 0.000000000e+00 0.000000000e+00 0.000000000e+00 0.000000000e+00
1.070000e+09 -8.184472664e-01 4.556310529e-02 -9.278182603e-01 2.492267469e-01 0.000000000e+00 0.000000000e+00 0.000000000e+00 0.000000000e+00
1.080000e+09 -8.185208888e-01 4.598828455e-02 -9.282209271e-01 2.515523990e-01 0.000000000e+00 0.000000000e+00 0.000000000e+00 0.000000000e+00
1.090000e+09 -8.185952127e-01 4.641344442e-02 -9.286274291e-01 2.538779440e-01 0.000000000e+00 0.000000000e+00 0.000000000e+00 0.000000000e+00
1.100000e+09 -8.186702384e-01 4.683858466e-02 -9.290377689e-01 2.562033807e-01 0.000000000e+00 0.000000000e+00 0.000000000e+00 0.000000000e+00
1.110000e+09 -8.187459665e-01 4.726370502e-02 -9.294519488e-01 2.585287078e-01 0.000000000e+00 0.000000000e+00 0.000000000e+00 0.000000000e+00
1.120000e+09 -8.188223973e-01 4.768880526e-02 -9.298699715e-01 2.608539239e-01 0.000000000e+00 0.000000000e+00 0.000000000e+00 0.000000000e+00
1.130000e+09 -8.188995314e-01 4.811388512e-02 -9.302918395e-01 2.631790276e-01 0.000000000e+00 0.000000000e+00 0.000000000e+00 0.000000000e+00
1.140000e+09 -8.189773692e-01 4.853894435e-02 -9.307175553e-01 2.655040176e-01 0.000000000e+00 0.000000000e+00 0.000000000e+00 0.000000000e+00
1.150000e+09 -8.190559113e-01 4.896398270e-02 -9.311471216e-01 2.678288924e-01 0.000000000e+00 0.000000000e+00 0.000000000e+00 0.000000000e+00
1.160000e+09 -8.191351580e-01 4.938899992e-02 -9.315805410e-01 2.701536508e-01 0.000000000e+00 0.000000000e+00 0.000000000e+00 0.000000000e+00
1.170000e+09 -8.192151099e-01 4.981399574e-02 -9.320178162e-01 2.724782912e-01 0.000000000e+00 0.000000000e+00 0.000000000e+00 0.000000000e+00
1.180000e+09 -8.192957676e-01 5.023896991e-02 -9.324589497e-01 2.748028124e-01 0.000000000e+00 0.000000000e+00 0.000000000e+00 0.000000000e+00
1.190000e+09 -8.193771314e-01 5.066392217e-02 -9.329039444e-01 2.771272129e-01 0.000000000e+00 0.000000000e+00 0.000000000e+00 0.000000000e+00
1.200000e+09 -8.194592018e-01 5.108885224e-02 -9.333528029e-01 2.794514911e-01 0.000000000e+00 0.000000000e+00 0.000000000e+00 0.000000000e+00
1.210000e+09 -8.195419795e-01 5.151375988e-02 -9.338055279e-01 2.817756459e-01 0.000000000e+00 0.000000000e+00 0.000000000e+00 0.000000000e+00
1.220000e+09 -8.196254648e-01 5.193864481e-02 -9.342621223e-01 2.840996755e-01 0.000000000e+00 0.000000000e+00 0.000000000e+00 0.000000000e+00
1.230000e+09 -8.197096583e-01 5.236350676e-02 -9.347225887e-01 2.864235787e-01 0.000000000e+00 0.000000000e+00 0.000000000e+00 0.000000000e+00
1.240000e+09 -8.197945606e-01 5.278834546e-02 -9.351869301e-01 2.887473539e-01 0.000000000e+00 0.000000000e+00 0.000000000e+00 0.000000000e+00
1.250000e+09 -8.198801721e-01 5.321316064e-02 -9.356551492e-01 2.910709997e-01 0.000000000e+00 0.000000000e+00 0.000000000e+00 0.000000000e+00
1.260000e+09 -8.199664934e-01 5.363795202e-02 -9.361272489e-01 2.933945146e-01 0.000000000e+00 0.000000000e+00 0.000000000e+00 0.000000000e+00
1.270000e+09 -8.200535250e-01 5.406271932e-02 -9.366032321e-01 2.957178970e-01 0.000000000e+00 0.000000000e+00 0.000000000e+00 0.000000000e+00
1.280000e+09 -8.201412674e-01 5.448746227e-02 -9.370831017e-01 2.980411454e-01 0.000000000e+00 0.000000000e+00 0.000000000e+00 0.000000000e+00
1.290000e+09 -8.202297212e-01 5.491218059e-02 -9.375668606e-01 3.003642584e-01 0.000000000e+00 0.000000000e+00 0.000000000e+00 0.000000000e+00
1.300000e+09 -8.203188869e-01 5.533687399e-02 -9.380545118e-01 3.026872344e-01 0.000000000e+00 0.000000000e+00 0.000000000e+00 0.000000000e+00
1.310000e+09 -8.204087650e-01 5.576154219e-02 -9.385460581e-01 3.050100718e-01 0.000000000e+00 0.000000000e+00 0.000000000e+00 0.000000000e+00
1.320000e+09 -8.204993562e-01 5.618618489e-02 -9.390415027e-01 3.073327692e-01 0.000000000e+00 0.000000000e+00 0.000000000e+00 0.000000000e+00
1.330000e+09 -8.205906610e-01 5.661080181e-02 -9.395408486e-01 3.096553248e-01 0.000000000e+00 0.000000000e+00 0.000000000e+00 0.000000000e+00
1.340000e+09 -8.206826798e-01 5.703539266e-02 -9.400440987e-01 3.119777372e-01 0.000000000e+00 0.000000000e+00 0.000000000e+00 0.000000000e+00
1.350000e+09 -8.207754134e-01 5.745995714e-02 -9.405512561e-01 3.143000047e-01 0.000000000e+00 0.000000000e+00 0.000000000e+00 0.000000000e+00
1.360000e+09 -8.208688622e-01 5.788449496e-02 -9.410623240e-01 3.166221258e-01 0.000000000e+00 0.000000000e+00 0.000000000e+00 0.000000000e+00
1.370000e+09 -8.209630269e-01 5.830900581e-02 -9.415773054e-01 3.189440988e-01 0.000000000e+00 0.000000000e+00 0.000000000e+00 0.000000000e+00
1.380000e+09 -8.210579080e-01 5.873348940e-02 -9.420962035e-01 3.212659220e-01 0.000000000e+00 0.000000000e+00 0.000000000e+00 0.000000000e+00
1.390000e+09 -8.211535060e-01 5.915794542e-02 -9.426190215e-01 3.235875940e-01 0.000000000e+00 0.000000000e+00 0.000000000e+00 0.000000000e+00
1.400000e+09 -8.212498217e-01 5.958237357e-02 -9.431457625e-01 3.259091130e-01 0.000000000e+00 0.000000000e+00 0.000000000e+00 0.000000000e+00
1.410000e+09 -8.213468555e-01 6.000677354e-02 -9.436764296e-01 3.282304773e-01 0.000000000e+00 0.000000000e+00 0.000000000e+00 0.000000000e+00
1.420000e+09 -8.214446081e-01 6.043114501e-02 -9.442110263e-01 3.305516852e-01 0.000000000e+00 0.000000000e+00 0.000000000e+00 0.000000000e+00
1.430000e+09 -8.215430800e-01 6.085548769e-02 -9.447495556e-01 3.328727352e-01 0.000000000e+00 0.000000000e+00 0.000000000e+00 0.000000000e+00
1.440000e+09 -8.216422719e-01 6.127980124e-02 -9.452920209e-01 3.351936254e-01 0.000000000e+00 0.000000000e+00 0.000000000e+00 0.000000000e+00
1.450000e+09 -8.217421843e-01 6.170408536e-02 -9.458384255e-01 3.375143541e-01 0.000000000e+00 0.000000000e+00 0.000000000e+00 0.000000000e+00
1.460000e+09 -8.218428179e-01 6.212833973e-02 -9.463887727e-01 3.398349197e-01 0.000000000e+00 0.000000000e+00 0.000000000e+00 0.000000000e+00
1.470000e+09 -8.219441733e-01 6.255256401e-02 -9.469430658e-01 3.421553204e-01 0.000000000e+00 0.000000000e+00 0.000000000e+00 0.000000000e+00
1.480000e+09 -8.220462511e-01 6.297675790e-02 -9.475013082e-01 3.444755544e-01 0.000000000e+00 0.000000000e+00 0.000000000e+00 0.000000000e+00
1.490000e+09 -8.221490520e-01 6.340092106e-02 -9.480635034e-01 3.467956200e-01 0.000000000e+00 0.000000000e+00 0.000000000e+00 0.000000000e+00
1.500000e+09 -8.222525765e-01 6.382505315e-02 -9.486296546e-01 3.491155154e-01 0.000000000e+00 0.000000000e+00 0.000000000e+00 0.000000000e+00
1.510000e+09 -8.223568253e-01 6.424915386e-02 -9.491997654e-01 3.514352388e-01 0.000000000e+00 0.000000000e+00 0.000000000e+00 0.000000000e+00
1.520000e+09 -8.224617990e-01 6.467322284e-02 -9.497738393e-01 3.537547883e-01 0.000000000e+00 0.000000000e+00 0.000000000e+00 0.000000000e+00
1.530000e+09 -8.225674983e-01 6.509725976e-02 -9.503518796e-01 3.560741622e-01 0.000000000e+00 0.000000000e+00 0.000000000e+00 0.000000000e+00
1.540000e+09 -8.226739238e-01 6.552126428e-02 -9.509338900e-01 3.583933587e-01 0.000000000e+00 0.000000000e+00 0.000000000e+00 0.000000000e+00
1.550000e+09 -8.227810762e-01 6.594523606e-02 -9.515198739e-01 3.607123758e-01 0.000000000e+00 0.000000000e+00 0.000000000e+00 0.000000000e+00
1.560000e+09 -8.228889561e-01 6.636917475e-02 -9.521098349e-01 3.630312118e-01 0.000000000e+00 0.000000000e+00 0.000000000e+00 0.000000000e+00
1.570000e+09 -8.229975641e-01 6.679308000e-02 -9.527037766e-01 3.653498647e-01 0.000000000e+00 0.000000000e+00 0.000000000e+00 0.000000000e+00
1.580000e+09 -8.231069010e-01 6.721695147e-02 -9.533017026e-01 3.676683327e-01 0.000000000e+00 0.000000000e+00 0.000000000e+00 0.000000000e+00
1.590000e+09 -8.232169674e-01 6.764078879e-02 -9.539036166e-01 3.699866138e-01 0.000000000e+00 0.000000000e+00 0.000000000e+00 0.000000000e+00
1.600000e+09 -8.233277639e-01 6.806459163e-02 -9.545095221e-01 3.723047061e-01 0.000000000e+00 0.000000000e+00 0.000000000e+00 0.000000000e+00
1.610000e+09 -8.234392913e-01 6.848835961e-02 -9.551194228e-01 3.746226077e-01 0.000000000e+00 0.000000000e+00 0.000000000e+00 0.000000000e+00
1.620000e+09 -8.235515502e-01 6.891209238e-02 -9.557333225e-01 3.769403167e-01 0.000000000e+00 0.000000000e+00 0.000000000e+00 0.000000000e+00
1.630000e+09 -8.236645414e-01 6.933578958e-02 -9.563512249e-01 3.792578311e-01 0.000000000e+00 0.000000000e+00 0.000000000e+00 0.000000000e+00
1.640000e+09 -8.237782653e-01 6.975945083e-02 -9.569731336e-01 3.815751489e-01 0.000000000e+00 0.000000000e+00 0.000000000e+00 0.000000000e+00
1.650000e+09 -8.238927229e-01 7.018307577e-02 -9.575990526e-01 3.838922681e-01 0.000000000e+00 0.000000000e+00 0.000000000e+00 0.000000000e+00
1.660000e+09 -8.240079148e-01 7.060666404e-02 -9.582289855e-01 3.862091867e-01 0.000000000e+00 0.000000000e+00 0.000000000e+00 0.000000000e+00
1.670000e+09 -8.241238416e-01 7.103021524e-02 -9.588629363e-01 3.885259027e-01 0.000000000e+00 0.000000000e+00 0.000000000e+00 0.000000000e+00
1.680000e+09 -8.242405041e-01 7.145372901e-02 -9.595009086e-01 3.908424140e-01 0.000000000e+00 0.000000000e+00 0.000000000e+00 0.000000000e+00
1.690000e+09 -8.243579030e-01 7.187720496e-02 -9.601429065e-01 3.931587186e-01 0.000000000e+00 0.000000000e+00 0.000000000e+00 0.000000000e+00
1.700000e+09 -8.244760390e-01 7.230064272e-02 -9.607889337e-01 3.954748145e-01 0.000000000e+00 0.000000000e+00 0.000000000e+00 0.000000000e+00
1.710000e+09 -8.245949128e-01 7.272404189e-02 -9.614389943e-01 3.977906995e-01 0.000000000e+00 0.000000000e+00 0.000000000e+00 0.000000000e+00
1.720000e+09 -8.247145252e-01 7.314740209e-02 -9.620930920e-01 4.001063715e-01 0.000000000e+00 0.000000000e+00 0.000000000e+00 0.000000000e+00
1.730000e+09 -8.248348768e-01 7.357072293e-02 -9.627512310e-01 4.024218284e-01 0.000000000e+00 0.000000000e+00 0.000000000e+00 0.000000000e+00
1.740000e+09 -8.249559684e-01 7.399400401e-02 -9.634134152e-01 4.047370682e-01 0.000000000e+00 0.000000000e+00 0.000000000e+00 0.000000000e+00
1.750000e+09 -8.250778007e-01 7.441724493e-02 -9.640796485e-01 4.070520885e-01 0.000000000e+00 0.000000000e+00 0.000000000e+00 0.000000000e+00
1.760000e+09 -8.252003745e-01 7.484044529e-02 -9.647499350e-01 4.093668874e-01 0.000000000e+00 0.000000000e+00 0.000000000e+00 0.000000000e+00
1.770000e+09 -8.253236905e-01 7.526360470e-02 -9.654242788e-01 4.116814625e-01 0.000000000e+00 0.000000000e+00 0.000000000e+00 0.000000000e+00
1.780000e+09 -8.254477495e-01 7.568672273e-02 -9.661026840e-01 4.139958118e-01 0.000000000e+00 0.000000000e+00 0.000000000e+00 0.000000000e+00
1.790000e+09 -8.255725521e-01 7.610979899e-02 -9.667851546e-01 4.163099329e-01 0.000000000e+00 0.000000000e+00 0.000000000e+00 0.000000000e+00
1.800000e+09 -8.256980992e-01 7.653283306e-02 -9.674716947e-01 4.186238236e-01 0.000000000e+00 0.000000000e+00 0.000000000e+00 0.000000000e+00
1.810000e+09 -8.258243916e-01 7.695582452e-02 -9.681623086e-01 4.209374818e-01 0.000000000e+00 0.000000000e+00 0.000000000e+00 0.000000000e+00
1.820000e+09 -8.259514299e-01 7.737877295e-02 -9.688570004e-01 4.232509051e-01 0.000000000e+00 0.000000000e+00 0.000000000e+00 0.000000000e+00
1.830000e+09 -8.260792150e-01 7.780167794e-02 -9.695557742e-01 4.255640912e-01 0.000000000e+00 0.000000000e+00 0.000000000e+00 0.000000000e+00
1.840000e+09 -8.262077476e-01 7.822453906e-02 -9.702586344e-01 4.278770379e-01 0.000000000e+00 0.000000000e+00 0.000000000e+00 0.000000000e+00
1.850000e+09 -8.263370285e-01 7.864735587e-02 -9.709655851e-01 4.301897428e-01 0.000000000e+00 0.000000000e+00 0.000000000e+00 0.000000000e+00
1.860000e+09 -8.264670584e-01 7.907012795e-02 -9.716766306e-01 4.325022037e-01 0.000000000e+00 0.000000000e+00 0.000000000e+00 0.000000000e+00
1.870000e+09 -8.265978383e-01 7.949285486e-02 -9.723917753e-01 4.348144180e-01 0.000000000e+00 0.000000000e+00 0.000000000e+00 0.000000000e+00
1.880000e+09 -8.267293687e-01 7.991553616e-02 -9.731110233e-01 4.371263836e-01 0.000000000e+00 0.000000000e+00 0.000000000e+00 0.000000000e+00
1.890000e+09 -8.268616507e-01 8.033817141e-02 -9.738343792e-01 4.394380979e-01 0.000000000e+00 0.000000000e+00 0.000000000e+00 0.000000000e+00
1.900000e+09 -8.269946849e-01 8.076076018e-02 -9.745618472e-01 4.417495586e-01 0.000000000e+00 0.000000000e+00 0.000000000e+00 0.000000000e+00
1.910000e+09 -8.271284721e-01 8.118330200e-02 -9.752934316e-01 4.440607633e-01 0.000000000e+00 0.000000000e+00 0.000000000e+00 0.000000000e+00
1.920000e+09 -8.272630132e-01 8.160579642e-02 -9.760291371e-01 4.463717095e-01 0.000000000e+00 0.000000000e+00 0.000000000e+00 0.000000000e+00
1.930000e+09 -8.273983089e-01 8.202824300e-02 -9.767689678e-01 4.486823947e-01 0.000000000e+00 0.000000000e+00 0.000000000e+00 0.000000000e+00
1.940000e+09 -8.275343602e-01 8.245064128e-02 -9.775129284e-01 4.509928166e-01 0.000000000e+00 0.000000000e+00 0.000000000e+00 0.000000000e+00
1.950000e+09 -8.276711677e-01 8.287299079e-02 -9.782610233e-01 4.533029725e-01 0.000000000e+00 0.000000000e+00 0.000000000e+00 0.000000000e+00
1.960000e+09 -8.278087324e-01 8.329529106e-02 -9.790132570e-01 4.556128599e-01 0.000000000e+00 0.000000000e+00 0.000000000e+00 0.000000000e+00
1.970000e+09 -8.279470550e-01 8.371754163e-02 -9.797696341e-01 4.579224764e-01 0.000000000e+00 0.000000000e+00 0.000000000e+00 0.000000000e+00
1.980000e+09 -8.280861364e-01 8.413974203e-02 -9.805301590e-01 4.602318194e-01 0.000000000e+00 0.000000000e+00 0.000000000e+00 0.000000000e+00
1.990000e+09 -8.282259774e-01 8.456189178e-02 -9.812948364e-01 4.625408862e-01 0.000000000e+00 0.000000000e+00 0.000000000e+00 0.000000000e+00
2.000000e+09 -8.283665789e-01 8.498399041e-02 -9.820636709e-01 4.648496744e-01 0.000000000e+00 0.000000000e+00 0.000000000e+00 0.000000000e+00
2.010000e+09 -8.285079417e-01 8.540603742e-02 -9.828366671e-01 4.671581812e-01 0.000000000e+00 0.000000000e+00 0.000000000e+00 0.000000000e+00
2.020000e+09 -8.286500666e-01 8.582803234e-02 -9.836138296e-01 4.694664041e-01 0.000000000e+00 0.000000000e+00 0.000000000e+00 0.000000000e+00
2.030000e+09 -8.287929546e-01 8.624997467e-02 -9.843951631e-01 4.717743404e-01 0.000000000e+00 0.000000000e+00 0.000000000e+00 0.000000000e+00
2.040000e+09 -8.289366064e-01 8.667186392e-02 -9.851806724e-01 4.740819875e-01 0.000000000e+00 0.000000000e+00 0.000000000e+00 0.000000000e+00
2.050000e+09 -8.290810230e-01 8.709369960e-02 -9.859703621e-01 4.763893426e-01 0.000000000e+00 0.000000000e+00 0.000000000e+00 0.000000000e+00
2.060000e+09 -8.292262052e-01 8.751548120e-02 -9.867642369e-01 4.786964030e-01 0.000000000e+00 0.000000000e+00 0.000000000e+00 0.000000000e+00
2.070000e+09 -8.293721538e-01 8.793720822e-02 -9.875623018e-01 4.810031660e-01 0.000000000e+00 0.000000000e+00 0.000000000e+00 0.000000000e+00
2.080000e+09 -8.295188698e-01 8.835888015e-02 -9.883645613e-01 4.833096288e-01 0.000000000e+00 0.000000000e+00 0.000000000e+00 0.000000000e+00
2.090000e+09 -8.296663540e-01 8.878049648e-02 -9.891710205e-01 4.856157888e-01 0.000000000e+00 0.000000000e+00 0.000000000e+00 0.000000000e+00
2.100000e+09 -8.298146073e-01 8.920205669e-02 -9.899816840e-01 4.879216430e-01 0.000000000e+00 0.000000000e+00 0.000000000e+00 0.000000000e+00
2.110000e+09 -8.299636306e-01 8.962356027e-02 -9.907965568e-01 4.902271886e-01 0.000000000e+00 0.000000000e+00 0.000000000e+00 0.000000000e+00
2.120000e+09 -8.301134248e-01 9.004500669e-02 -9.916156437e-01 4.925324229e-01 0.000000000e+00 0.000000000e+00 0.000000000e+00 0.000000000e+00
2.130000e+09 -8.302639908e-01 9.046639542e-02 -9.924389497e-01 4.948373430e-01 0.000000000e+00 0.000000000e+00 0.000000000e+00 0.000000000e+00
2.140000e+09 -8.304153295e-01 9.088772594e-02 -9.932664797e-01 4.971419460e-01 0.000000000e+00 0.000000000e+00 0.000000000e+00 0.000000000e+00
2.150000e+09 -8.305674417e-01 9.130899771e-02 -9.940982386e-01 4.994462289e-01 0.000000000e+00 0.000000000e+00 0.000000000e+00 0.000000000e+00
2.160000e+09 -8.307203285e-01 9.173021018e-02 -9.949342315e-01 5.017501889e-01 0.000000000e+00 0.000000000e+00 0.000000000e+00 0.000000000e+00
2.170000e+09 -8.308739907e-01 9.215136283e-02 -9.957744633e-01 5.040538231e-01 0.000000000e+00 0.000000000e+00 0.000000000e+00 0.000000000e+00
2.180000e+09 -8.310284292e-01 9.257245509e-02 -9.966189392e-01 5.063571284e-01 0.000000000e+00 0.000000000e+00 0.000000000e+00 0.000000000e+00
2.190000e+09 -8.311836450e-01 9.299348643e-02 -9.974676640e-01 5.086601019e-01 0.000000000e+00 0.000000000e+00 0.000000000e+00 0.000000000e+00
2.200000e+09 -8.313396390e-01 9.341445629e-02 -9.983206430e-01 5.109627406e-01 0.000000000e+00 0.000000000e+00 0.000000000e+00 0.000000000e+00
2.210000e+09 -8.314964121e-01 9.383536410e-02 -9.991778811e-01 5.132650414e-01 0.000000000e+00 0.000000000e+00 0.000000000e+00 0.000000000e+00
2.220000e+09 -8.316539653e-01 9.425620931e-02 -1.000039384e+00 5.155670014e-01 0.000000000e+00 0.000000000e+00 0.000000000e+00 0.000000000e+00
2.230000e+09 -8.318122994e-01 9.467699134e-02 -1.000905156e+00 5.178686173e-01 0.000000000e+00 0.000000000e+00 0.000000000e+00 0.000000000e+00
2.240000e+09 -8.319714155e-01 9.509770964e-02 -1.001775202e+00 5.201698861e-01 0.000000000e+00 0.000000000e+00 0.000000000e+00 0.000000000e+00
2.250000e+09 -8.321313145e-01 9.551836362e-02 -1.002649529e+00 5.224708048e-01 0.000000000e+00 0.000000000e+00 0.000000000e+00 0.000000000e+00
2.260000e+09 -8.322919973e-01 9.593895270e-02 -1.003528140e+00 5.247713701e-01 0.000000000e+00 0.000000000e+00 0.000000000e+00 0.000000000e+00
2.270000e+09 -8.324534649e-01 9.635947630e-02 -1.004411042e+00 5.270715789e-01 0.000000000e+00 0.000000000e+00 0.000000000e+00 0.000000000e+00
2.280000e+09 -8.326157183e-01 9.677993384e-02 -1.005298240e+00 5.293714280e-01 0.000000000e+00 0.000000000e+00 0.000000000e+00 0.000000000e+00
2.290000e+09 -8.327787584e-01 9.720032472e-02 -1.006189738e+00 5.316709142e-01 0.000000000e+00 0.000000000e+00 0.000000000e+00 0.000000000e+00
2.300000e+09 -8.329425862e-01 9.762064835e-02 -1.007085543e+00 5.339700342e-01 0.000000000e+00 0.000000000e+00 0.000000000e+00 0.000000000e+00
2.310000e+09 -8.331072027e-01 9.804090412e-02 -1.007985659e+00 5.362687848e-01 0.000000000e+00 0.000000000e+00 0.000000000e+00 0.000000000e+00
2.320000e+09 -8.332726088e-01 9.846109143e-02 -1.008890093e+00 5.385671628e-01 0.000000000e+00 0.000000000e+00 0.000000000e+00 0.000000000e+00
2.330000e+09 -8.334388056e-01 9.888120968e-02 -1.009798848e+00 5.408651647e-01 0.000000000e+00 0.000000000e+00 0.000000000e+00 0.000000000e+00
2.340000e+09 -8.336057940e-01 9.930125824e-02 -1.010711931e+00 5.431627873e-01 0.000000000e+00 0.000000000e+00 0.000000000e+00 0.000000000e+00
2.350000e+09 -8.337735750e-01 9.972123651e-02 -1.011629348e+00 5.454600272e-01 0.000000000e+00 0.000000000e+00 0.000000000e+00 0.000000000e+00
2.360000e+09 -8.339421496e-01 1.001411439e-01 -1.012551102e+00 5.477568810e-01 0.000000000e+00 0.000000000e+00 0.000000000e+00 0.000000000e+00
2.370000e+09 -8.341115188e-01 1.005609797e-01 -1.013477202e+00 5.500533454e-01 0.000000000e+00 0.000000000e+00 0.000000000e+00 0.000000000e+00
2.380000e+09 -8.342816836e-01 1.009807433e-01 -1.014407650e+00 5.523494168e-01 0.000000000e+00 0.000000000e+00 0.000000000e+00 0.000000000e+00
2.390000e+09 -8.344526451e-01 1.014004341e-01 -1.015342454e+00 5.546450919e-01 0.000000000e+00 0.000000000e+00 0.000000000e+00 0.000000000e+00
2.400000e+09 -8.346244042e-01 1.018200514e-01 -1.016281619e+00 5.569403672e-01 0.000000000e+00 0.000000000e+00 0.000000000e+00 0.000000000e+00
2.410000e+09 -8.347969620e-01 1.022395947e-01 -1.017225149e+00 5.592352391e-01 0.000000000e+00 0.000000000e+00 0.000000000e+00 0.000000000e+00
2.420000e+09 -8.349703194e-01 1.026590632e-01 -1.018173052e+00 5.615297042e-01 0.000000000e+00 0.000000000e+00 0.000000000e+00 0.000000000e+00
2.430000e+09 -8.351444776e-01 1.030784563e-01 -1.019125332e+00 5.638237588e-01 0.000000000e+00 0.000000000e+00 0.000000000e+00 0.000000000e+00
2.440000e+09 -8.353194375e-01 1.034977733e-01 -1.020081996e+00 5.661173994e-01 0.000000000e+00 0.000000000e+00 0.000000000e+00 0.000000000e+00
2.450000e+09 -8.354952002e-01 1.039170136e-01 -1.021043048e+00 5.684106224e-01 0.000000000e+00 0.000000000e+00 0.000000000e+00 0.000000000e+00
2.460000e+09 -8.356717667e-01 1.043361766e-01 -1.022008495e+00 5.707034242e-01 0.000000000e+00 0.000000000e+00 0.000000000e+00 0.000000000e+00
2.470000e+09 -8.358491380e-01 1.047552614e-01 -1.022978342e+00 5.729958010e-01 0.000000000e+00 0.000000000e+00 0.000000000e+00 0.000000000e+00
2.480000e+09 -8.360273152e-01 1.051742676e-01 -1.023952595e+00 5.752877493e-01 0.000000000e+00 0.000000000e+00 0.000000000e+00 0.000000000e+00
2.490000e+09 -8.362062994e-01 1.055931942e-01 -1.024931259e+00 5.775792652e-01 0.000000000e+00 0.000000000e+00 0.000000000e+00 0.000000000e+00
2.500000e+09 -8.363860917e-01 1.060120408e-01 -1.025914342e+00 5.798703451e-01 0.000000000e+00 0.000000000e+00 0.000000000e+00 0.000000000e+00
2.510000e+09 -8.365666930e-01 1.064308066e-01 -1.026901847e+00 5.821609853e-01 0.000000000e+00 0.000000000e+00 0.000000000e+00 0.000000000e+00
2.520000e+09 -8.367481044e-01 1.068494909e-01 -1.027893782e+00 5.844511818e-01 0.000000000e+00 0.000000000e+00 0.000000000e+00 0.000000000e+00
2.530000e+09 -8.369303271e-01 1.072680930e-01 -1.028890153e+00 5.867409309e-01 0.000000000e+00 0.000000000e+00 0.000000000e+00 0.000000000e+00
2.540000e+09 -8.371133620e-01 1.076866121e-01 -1.029890964e+00 5.890302287e-01 0.000000000e+00 0.000000000e+00 0.000000000e+00 0.000000000e+00
2.550000e+09 -8.372972103e-01 1.081050477e-01 -1.030896222e+00 5.913190714e-01 0.000000000e+00 0.000000000e+00 0.000000000e+00 0.000000000e+00
2.560000e+09 -8.374818731e-01 1.085233989e-01 -1.031905932e+00 5.936074551e-01 0.000000000e+00 0.000000000e+00 0.000000000e+00 0.000000000e+00
2.570000e+09 -8.376673514e-01 1.089416650e-01 -1.032920102e+00 5.958953758e-01 0.000000000e+00 0.000000000e+00 0.000000000e+00 0.000000000e+00
2.580000e+09 -8.378536463e-01 1.093598454e-01 -1.033938736e+00 5.981828296e-01 0.000000000e+00 0.000000000e+00 0.000000000e+00 0.000000000e+00
2.590000e+09 -8.380407589e-01 1.097779393e-01 -1.034961841e+00 6.004698125e-01 0.000000000e+00 0.000000000e+00 0.000000000e+00 0.000000000e+00
2.600000e+09 -8.382286904e-01 1.101959458e-01 -1.035989423e+00 6.027563205e-01 0.000000000e+00 0.000000000e+00 0.000000000e+00 0.000000000e+00
2.610000e+09 -8.384174418e-01 1.106138644e-01 -1.037021488e+00 6.050423495e-01 0.000000000e+00 0.000000000e+00 0.000000000e+00 0.000000000e+00
2.620000e+09 -8.386070142e-01 1.110316943e-01 -1.038058042e+00 6.073278955e-01 0.000000000e+00 0.000000000e+00 0.000000000e+00 0.000000000e+00
2.630000e+09 -8.387974088e-01 1.114494346e-01 -1.039099091e+00 6.096129543e-01 0.000000000e+00 0.000000000e+00 0.000000000e+00 0.000000000e+00
2.640000e+09 -8.389886266e-01 1.118670847e-01 -1.040144641e+00 6.118975219e-01 0.000000000e+00 0.000000000e+00 0.000000000e+00 0.000000000e+00
2.650000e+09 -8.391806688e-01 1.122846438e-01 -1.041194698e+00 6.141815942e-01 0.000000000e+00 0.000000000e+00 0.000000000e+00 0.000000000e+00
2.660000e+09 -8.393735366e-01 1.127021111e-01 -1.042249269e+00 6.164651668e-01 0.000000000e+00 0.000000000e+00 0.000000000e+00 0.000000000e+00
2.670000e+09 -8.395672310e-01 1.131194858e-01 -1.043308360e+00 6.187482356e-01 0.000000000e+00 0.000000000e+00 0.000000000e+00 0.000000000e+00
2.680000e+09 -8.397617531e-01 1.135367672e-01 -1.044371976e+00 6.210307964e-01 0.000000000e+00 0.000000000e+00 0.000000000e+00 0.000000000e+00
2.690000e+09 -8.399571042e-01 1.139539545e-01 -1.045440125e+00 6.233128448e-01 0.000000000e+00 0.000000000e+00 0.000000000e+00 0.000000000e+00
2.700000e+09 -8.401532853e-01 1.143710468e-01 -1.046512812e+00 6.255943766e-01 0.000000000e+00 0.000000000e+00 0.000000000e+00 0.000000000e+00
2.710000e+09 -8.403502977e-01 1.147880435e-01 -1.047590044e+00 6.278753875e-01 0.000000000e+00 0.000000000e+00 0.000000000e+00 0.000000000e+00
2.720000e+09 -8.405481424e-01 1.152049436e-01 -1.048671826e+00 6.301558730e-01 0.000000000e+00 0.000000000e+00 0.000000000e+00 0.000000000e+00
2.730000e+09 -8.407468206e-01 1.156217464e-01 -1.049758167e+00 6.324358288e-01 0.000000000e+00 0.000000000e+00 0.000000000e+00 0.000000000e+00
2.740000e+09 -8.409463335e-01 1.160384511e-01 -1.050849071e+00 6.347152505e-01 0.000000000e+00 0.000000000e+00 0.000000000e+00 0.000000000e+00
2.750000e+09 -8.411466823e-01 1.164550568e-01 -1.051944545e+00 6.369941335e-01 0.000000000e+00 0.000000000e+00 0.000000000e+00 0.000000000e+00
2.760000e+09 -8.413478680e-01 1.168715628e-01 -1.053044595e+00 6.392724735e-01 0.000000000e+00 0.000000000e+00 0.000000000e+00 0.000000000e+00
2.770000e+09 -8.415498920e-01 1.172879681e-01 -1.054149229e+00 6.415502659e-01 0.000000000e+00 0.000000000e+00 0.000000000e+00 0.000000000e+00
2.780000e+09 -8.417527553e-01 1.177042721e-01 -1.055258452e+00 6.438275061e-01 0.000000000e+00 0.000000000e+00 0.000000000e+00 0.000000000e+00
2.790000e+09 -8.419564591e-01 1.181204737e-01 -1.056372271e+00 6.461041895e-01 0.000000000e+00 0.000000000e+00 0.000000000e+00 0.000000000e+00
2.800000e+09 -8.421610046e-01 1.185365722e-01 -1.057490692e+00 6.483803117e-01 0.000000000e+00 0.000000000e+00 0.000000000e+00 0.000000000e+00
2.810000e+09 -8.423663931e-01 1.189525668e-01 -1.058613722e+00 6.506558678e-01 0.000000000e+00 0.000000000e+00 0.000000000e+00 0.000000000e+00
2.820000e+09 -8.425726257e-01 1.193684565e-01 -1.059741368e+00 6.529308533e-01 0.000000000e+00 0.000000000e+00 0.000000000e+00 0.000000000e+00
2.830000e+09 -8.427797036e-01 1.197842405e-01 -1.060873635e+00 6.552052633e-01 0.000000000e+00 0.000000000e+00 0.000000000e+00 0.000000000e+00
2.840000e+09 -8.429876280e-01 1.201999180e-01 -1.062010532e+00 6.574790933e-01 0.000000000e+00 0.000000000e+00 0.000000000e+00 0.000000000e+00
2.850000e+09 -8.431964002e-01 1.206154880e-01 -1.063152064e+00 6.597523384e-01 0.000000000e+00 0.000000000e+00 0.000000000e+00 0.000000000e+00
2.860000e+09 -8.434060212e-01 1.210309497e-01 -1.064298237e+00 6.620249937e-01 0.000000000e+00 0.000000000e+00 0.000000000e+00 0.000000000e+00
2.870000e+09 -8.436164924e-01 1.214463022e-01 -1.065449059e+00 6.642970545e-01 0.000000000e+00 0.000000000e+00 0.000000000e+00 0.000000000e+00
2.880000e+09 -8.438278150e-01 1.218615445e-01 -1.066604537e+00 6.665685159e-01 0.000000000e+00 0.000000000e+00 0.000000000e+00 0.000000000e+00
2.890000e+09 -8.440399902e-01 1.222766759e-01 -1.067764676e+00 6.688393730e-01 0.000000000e+00 0.000000000e+00 0.000000000e+00 0.000000000e+00
2.900000e+09 -8.442530192e-01 1.226916954e-01 -1.068929484e+00 6.711096209e-01 0.000000000e+00 0.000000000e+00 0.000000000e+00 0.000000000e+00
2.910000e+09 -8.444669032e-01 1.231066020e-01 -1.070098968e+00 6.733792544e-01 0.000000000e+00 0.000000000e+00 0.000000000e+00 0.000000000e+00
2.920000e+09 -8.446816435e-01 1.235213949e-01 -1.071273133e+00 6.756482688e-01 0.000000000e+00 0.000000000e+00 0.000000000e+00 0.000000000e+00
2.930000e+09 -8.448972414e-01 1.239360731e-01 -1.072451988e+00 6.779166589e-01 0.000000000e+00 0.000000000e+00 0.000000000e+00 0.000000000e+00
2.940000e+09 -8.451136980e-01 1.243506357e-01 -1.073635539e+00 6.801844196e-01 0.000000000e+00 0.000000000e+00 0.000000000e+00 0.000000000e+00
2.950000e+09 -8.453310147e-01 1.247650818e-01 -1.074823793e+00 6.824515458e-01 0.000000000e+00 0.000000000e+00 0.000000000e+00 0.000000000e+00
2.960000e+09 -8.455491926e-01 1.251794105e-01 -1.076016756e+00 6.847180324e-01 0.000000000e+00 0.000000000e+00 0.000000000e+00 0.000000000e+00
2.970000e+09 -8.457682331e-01 1.255936206e-01 -1.077214435e+00 6.869838742e-01 0.000000000e+00 0.000000000e+00 0.000000000e+00 0.000000000e+00
2.980000e+09 -8.459881374e-01 1.260077115e-01 -1.078416838e+00 6.892490660e-01 0.000000000e+00 0.000000000e+00 0.000000000e+00 0.000000000e+00
2.990000e+09 -8.462089067e-01 1.264216819e-01 -1.079623972e+00 6.915136026e-01 0.000000000e+00 0.000000000e+00 0.000000000e+00 0.000000000e+00
3.000000e+09 -8.464305424e-01 1.268355311e-01 -1.080835843e+00 6.937774785e-01 0.000000000e+00 0.000000000e+00 0.000000000e+00 0.000000000e+00
