! Created with skrf 2.1.0 (http://scikit-rf.org).
# GHz S RI R 55.47 
!freq ReS11 ImS11 ReS21 ImS21 ReS12 ImS12 ReS22 ImS22
0.5 0.007773523498772443 0.05577018012516834 0.8958681079584372 -0.4191564778287471 0.8958681079584373 -0.4191564778287472 0.022915644819987334 0.052952439233427545
0.51 0.0076968802588667385 0.05190610617265233 0.8895877551172641 -0.4336740379687871 0.8895877551172636 -0.433674037968787 0.02208782659887681 0.049139425478813656
0.52 0.007546933037253305 0.04814008469973041 0.8830951147367769 -0.4479632630187923 0.8830951147367773 -0.4479632630187924 0.02113150459768946 0.04547927492803529
0.53 0.007327696366908259 0.04446823798023049 0.8763972475260282 -0.46202875993581183 0.876397247526028 -0.4620287599358118 0.020055466236593045 0.0419692086958978
0.54 0.007042857331986582 0.04088692974951676 0.8695007427094648 -0.4758747811970759 0.8695007427094648 -0.4758747811970759 0.018867901098957047 0.0386065377837305
0.55 0.006695808453420963 0.03739274892009503 0.8624117668661021 -0.4895052502086559 0.8624117668661021 -0.48950525020865593 0.017576460308675865 0.03538866364079298
0.56 0.006289676855945567 0.03398249438666283 0.855136107214419 -0.5029237849851532 0.8551361072144191 -0.5029237849851532 0.01618830922177981 0.03231307729140771
0.57 0.005827350182460659 0.030653160867192494 0.8476792100391121 -0.516133720192895 0.847679210039112 -0.516133720192895 0.014710174250775084 0.029377357372716857
0.58 0.005311499657976705 0.027401925723200406 0.8400462148606118 -0.5291381276523974 0.8400462148606116 -0.5291381276523973 0.01314838453158031 0.026579167358194444
0.59 0.004744600651035595 0.024226136701027093 0.832241984867013 -0.5419398353962814 0.832241984867013 -0.5419398353962814 0.011508909049693627 0.0239162521861211
0.6 0.004128951034094085 0.02112330053609892 0.8242711340587078 -0.554541445377319 0.8242711340587081 -0.5545414453773191 0.009797389762102753 0.021386434467326024
0.61 0.00346668760461608 0.018091072363356945 0.8161380514966118 -0.5669453499183484 0.8161380514966117 -0.5669453499183483 0.008019171182472286 0.018987610410422698
0.62 0.002759800794528835 0.01512724587896518 0.8078469229939345 -0.5791537469919974 0.8078469229939345 -0.5791537469919973 0.00617932683768132 0.016717745573768768
0.63 0.00201014786641585 0.01222974420081522 0.7994017505477012 -0.591168654413755 0.7994017505477011 -0.591168654413755 0.0042826829524574206 0.01457487053005337
0.64 0.001219464769607683 0.009396611378030047 0.7908063697685624 -0.6029919230272401 0.7908063697685627 -0.6029919230272403 0.0023338396744756046 0.012557076510653341
0.65 0.0003893768075803137 0.006626004502517657 0.7820644655349479 -0.6146252489556879 0.7820644655349479 -0.6146252489556879 0.0003371901138611753 0.010662511081825496
0.66 -0.00047859175070602035 0.0039161863785137155 0.7731795860695676 -0.6260701849888473 0.7731795860695677 -0.6260701849888474 -0.0017030625622830378 0.008889373892672225
0.67 -0.0013830089991622614 0.0012655187089323228 0.7641551556119991 -0.6373281511697765 0.7641551556119989 -0.6373281511697764 -0.0037828897686492755 0.007235912525097589
0.68 -0.002322527560348676 -0.001327544239846875 0.7549944858400062 -0.6484004446414268 0.7549944858400062 -0.6484004446414268 -0.005898423687293782 0.005700418468172784
0.69 -0.003295877498649783 -0.003864461530425363 0.7457007861740165 -0.6592882488085858 0.7457007861740165 -0.6592882488085858 -0.008045944835428491 0.004281223233095731
0.7 -0.004301859901464987 -0.006346611037151801 0.7362771730832294 -0.6699926418665851 0.7362771730832294 -0.6699926418665852 -0.010221870869992798 0.0029766946199535427
0.71 -0.005339341058334063 -0.008775294549848411 0.7267266784980035 -0.680514604744312 0.7267266784980037 -0.680514604744312 -0.012422746500287548 0.001785233143562497
0.72 -0.006407247175993522 -0.011151742526843665 0.7170522574210669 -0.6908550285054075 0.7170522574210673 -0.6908550285054077 -0.01464523439457134 0.0007052686225149746
0.73 -0.007504559574466683 -0.013477118523500534 0.707256794819525 -0.7010147212481563 0.7072567948195247 -0.7010147212481561 -0.01688610697934927 -0.00026474306687073487
0.74 -0.008630310315478755 -0.01575252332042195 0.6973431118703819 -0.7109944145413878 0.697343111870382 -0.7109944145413878 -0.019142239041328623 -0.001126323071927733
0.75 -0.009783578219932126 -0.017978998773651254 0.6873139716241817 -0.7207947694308179 0.687313971624182 -0.7207947694308181 -0.02141060105190605 -0.0018809724820497806
0.76 -0.010963485235956517 -0.02015753140745 0.6771720841442397 -0.7304163820475263 0.6771720841442397 -0.7304163820475263 -0.023688253142754273 -0.0025301750869606383
0.77 -0.012169193123248356 -0.022289055768635126 0.6669201111726567 -0.7398597888477716 0.6669201111726568 -0.7398597888477717 -0.025972339668744633 -0.0030753999785179892
0.78 -0.013399900423121273 -0.024374457559976356 0.6565606703688078 -0.7491254715110581 0.6565606703688078 -0.749125471511058 -0.028260084301213132 -0.003518104000335301
0.79 -0.014654839686946256 -0.026414576568791114 0.6460963391611038 -0.7582138615212245 0.6460963391611035 -0.7582138615212243 -0.0305487856005565 -0.00385973404994973
0.8 -0.01593327493855989 -0.02841020940560956 0.6355296582485196 -0.767125344453389 0.6355296582485196 -0.767125344453389 -0.032835813022444746 -0.004101729238535973
0.81 -0.017234499348758862 -0.030362112066627985 0.6248631347845897 -0.7758602639877757 0.6248631347845897 -0.7758602639877757 -0.035118603316621526 -0.004245522913352322
0.82 -0.01855783310226784 -0.03227100233260057 0.6140992452731864 -0.7844189256698175 0.6140992452731864 -0.7844189256698176 -0.037394657281431036 -0.00429254454818108
0.83 -0.019902621439575115 -0.03413756201583365 0.6032404382024001 -0.7928016004343891 0.6032404382024 -0.7928016004343892 -0.0396615368409072 -0.0042442215070331414
0.84 -0.021268232857804083 -0.035962439066051795 0.5922891364402 -0.801008527910656 0.5922891364401999 -0.8010085279106559 -0.041916862414547326 -0.004101980686352665
0.85 -0.02265405745638534 -0.03774624954506563 0.581247739413166 -0.8090399195227298 0.5812477394131657 -0.8090399195227295 -0.044158310552828615 -0.0038672500408578002
0.86 -0.024059505414696366 -0.039489579479416594 0.5701186250875031 -0.8168959614001574 0.570118625087503 -0.8168959614001575 -0.04638361181413227 -0.0035414599980466525
0.87 -0.025484005590096857 -0.041192986599468746 0.5589041517696518 -0.8245768171111867 0.5589041517696519 -0.8245768171111867 -0.048590548861077575 -0.003126044766253103
0.88 -0.02692700422591425 -0.04285700197277148 0.5476066597421412 -0.8320826302307639 0.5476066597421412 -0.832082630230764 -0.050776954756352265 -0.0026224435409757667
0.89 -0.028387963759933195 -0.04448213153893012 0.5362284727488416 -0.8394135267543115 0.5362284727488418 -0.8394135267543116 -0.05294071143999057 -0.0020321016140431537
0.9 -0.02986636172484438 -0.04606885755266914 0.5247718993424151 -0.8465696173674907 0.5247718993424152 -0.8465696173674908 -0.05507974837172587 -0.0013564713899959042
0.91 -0.031361689732911244 -0.047617639941279204 0.513239234105582 -0.8535509995814011 0.513239234105582 -0.853550999581401 -0.05719204132354247 -0.0005970133138949013
0.92 -0.032873452537836696 -0.049128917582172166 0.5016327587567347 -0.8603577597419488 0.5016327587567347 -0.8603577597419491 -0.05927561130889936 0.0002448032854187987
0.93 -0.03440116716745731 -0.05060310950584793 0.4899547431494583 -0.8669899749214701 0.48995474314945847 -0.8669899749214701 -0.06132852363631248 0.001167499432758704
0.94 -0.03594436212147788 -0.0520406160291849 0.4782074461746675 -0.8734477147001114 0.4782074461746677 -0.8734477147001113 -0.06334888707606755 0.0021695858210462296
0.95 -0.037502576628980155 -0.05344181982360828 0.46639311657326404 -0.8797310428438987 0.46639311657326427 -0.8797310428438988 -0.06533485312982494 0.003249562199270858
0.96 -0.039075359960916455 -0.05480708692235557 0.4545139936665367 -0.8858400188859457 0.45451399366653666 -0.8858400188859453 -0.06728461539375842 0.004405916830616068
0.97 -0.04066227079321687 -0.05613676767076055 0.4425723080108738 -0.8917746996167604 0.44257230801087394 -0.8917746996167603 -0.0691964090066754 0.005637126017557857
0.98 -0.04226287661653079 -0.057431197623186866 0.4305702819827965 -0.8975351404892097 0.4305702819827966 -0.8975351404892096 -0.07106851017528613 0.006941653690904109
0.99 -0.04387675318896795 -0.05869069838999131 0.4185101302997995 -0.9031213969432761 0.4185101302997999 -0.903121396943276 -0.0728992357694473 0.008317951059883555
1.0 -0.0455034840285117 -0.05991557843765409 0.40639406048201526 -0.9085335256554024 0.4063940604820154 -0.9085335256554024 -0.07468694298079888 0.009764456320525671
1.01 -0.047142659942072784 -0.0611061338449914 0.3942242732592985 -0.9137715857168709 0.39422427325929854 -0.913771585716871 -0.07643002903874928 0.011279594419716415
1.02 -0.04879387858840098 -0.06226264901816511 0.3820029629279412 -0.9188356397453569 0.3820029629279411 -0.9188356397453568 -0.07812693097825693 0.012861776872429499
1.03 -0.050456744072306256 -0.06338539736701221 0.3697323176608803 -0.9237257549335007 0.36973231766088027 -0.9237257549335006 -0.07977612545429574 0.014509401629753721
1.04 -0.05213086656785597 -0.06447464194504851 0.35741451977494115 -0.9284420040381068 0.3574145197749411 -0.9284420040381067 -0.08137612859830158 0.01622085299544989
1.05 -0.05381586196840613 -0.06553063605533158 0.34505174595838 -0.9329844663132921 0.3450517459583799 -0.9329844663132923 -0.0829254959122613 0.017994501588877516
1.06 -0.05551135156149644 -0.06655362382422955 0.3326461674617232 -0.93735322839072 0.33264616746172326 -0.93735322839072 -0.08442282219644423 0.019828704352224915
1.07 -0.05721696172680462 -0.06754384074499303 0.3201999502546537 -0.9415483851098158 0.3201999502546537 -0.9415483851098159 -0.08586674150708094 0.02172180460008108
1.08 -0.058932323655492586 -0.06850151419291173 0.30771525515149667 -0.9455700403006907 0.3077152551514966 -0.9455700403006908 -0.08725592714057652 0.0236721321094631
1.09 -0.060657073089418284 -0.06942686391370884 0.2951942379076466 -0.9494183075223077 0.2951942379076469 -0.9494183075223078 -0.08858909164109983 0.025678003248509038
1.1 -0.06239085007879814 -0.07032010248672421 0.28263904928910094 -0.9530933107582582 0.28263904928910105 -0.9530933107582584 -0.08986498682862654 0.027737721142113227
1.11 -0.06413329875702355 -0.07118143576433152 0.2700518351170911 -0.9565951850723727 0.270051835117091 -0.9565951850723726 -0.0910824038447283 0.029849575872863285
1.12 -0.06588406713143215 -0.07201106328893944 0.2574347362896774 -0.9599240772262324 0.2574347362896771 -0.9599240772262324 -0.09224017321359809 0.032011844715705486
1.13 -0.06764280688892298 -0.07280917868884794 0.24478988878200092 -0.9630801462605408 0.24478988878200073 -0.9630801462605408 -0.09333716491598487 0.03422279240482113
1.14 -0.06940917321539743 -0.07357597005413458 0.23211942362678747 -0.9660635640421514 0.23211942362678759 -0.9660635640421518 -0.09437228847387376 0.03648067143127586
1.15 -0.07118282462807769 -0.07431162029368653 0.2194254668765733 -0.9688745157784883 0.21942546687657327 -0.9688745157784882 -0.09534449304390764 0.038783722370042614
1.16 -0.07296342281982648 -0.07501630747441174 0.20671013954900627 -0.9715132005009288 0.20671013954900627 -0.9715132005009288 -0.09625276751768286 0.04113017423506392
1.17 -0.07475063251466246 -0.0756902051436027 0.19397555755650028 -0.9739798315186816 0.19397555755650062 -0.9739798315186817 -0.09709614062718427 0.04351824486106921
1.18 -0.07654412133371694 -0.07633348263536449 0.18122383162141012 -0.9762746368445425 0.1812238316214102 -0.9762746368445427 -0.09787368105374733 0.04594614131090582
1.19 -0.07834355967093634 -0.07694630536196576 0.16845706717782333 -0.9783978595938781 0.16845706717782336 -0.9783978595938784 -0.09858449753904588 0.048412060307187865
1.2 -0.08014862057788993 -0.07752883509090899 0.1556773642609901 -0.9803497583580685 0.15567736426099016 -0.9803497583580685 -0.0992277389967062 0.05091418868711803
1.21 -0.08195897965707677 -0.07808123020847892 0.14288681738533354 -0.9821306075535847 0.14288681738533357 -0.9821306075535849 -0.099802594623247 0.05345070387936298
1.22 -0.0837743149631815 -0.07860364597047734 0.1300875154119302 -0.9837406977478219 0.13008751541193028 -0.9837406977478219 -0.10030829400713392 0.05601977440190963
1.23 -0.08559430691175857 -0.07909623474080471 0.117281541406283 -0.9851803359626964 0.11728154140628305 -0.9851803359626964 -0.10074410723481678 0.05861956037986479
1.24 -0.08741863819486577 -0.07955914621851942 0.10447097248715435 -0.9864498459570205 0.10447097248715452 -0.9864498459570209 -0.10110934499270047 0.06124821408218789
1.25 -0.08924699370319841 -0.07999252765396028 0.09165787966718994 -0.9875495684885625 0.09165787966718981 -0.9875495684885623 -0.1014033586640677 0.06390388047638251
1.26 -0.09107906045430814 -0.08039652405448666 0.07884432768598583 -0.9884798615566613 0.07884432768598579 -0.9884798615566616 -0.10162554042004164 0.06658469780019965
1.27 -0.09291452752651881 -0.0807712783803586 0.0660323748362545 -0.9892411006262458 0.06603237483625471 -0.989241100626246 -0.10177532330373995 0.06928879814943478
1.28 -0.09475308599817585 -0.08111693173124607 0.05322407278365535 -0.989833678834 0.05322407278365517 -0.989833678834 -0.10185218130682634 0.07201430808092363
1.29 -0.09659442889189356 -0.0814336235238323 0.04042146638085983 -0.9902580071774514 0.04042146638085996 -0.9902580071774513 -0.10185562943772794 0.07475934922987197
1.3 -0.09843825112348387 -0.08172149166094575 0.02762659347636156 -0.9905145146876483 0.027626593476361504 -0.9905145146876483 -0.10178522378082953 0.07752203894067028
1.31 -0.10028424945527406 -0.08198067269263293 0.014841484718517735 -0.9906036485861089 0.014841484718517803 -0.9906036485861089 -0.10164056154601295 0.0803004909103757
1.32 -0.10213212245353503 -0.08221130196956108 0.002068163355282857 -0.9905258744266524 0.002068163355282868 -0.9905258744266525 -0.1014212811079506 0.08309281584405319
1.33 -0.10398157044976972 -0.08241351378911645 -0.01069135496993759 -0.9902816762227236 -0.010691354969937821 -0.9902816762227237 -0.10112706203460409 0.08589712212120118
1.34 -0.1058322955056133 -0.08258744153454228 -0.023435062425914057 -0.9898715565607491 -0.023435062425914067 -0.9898715565607489 -0.10075762510442392 0.08871151647249254
1.35 -0.10768400138112702 -0.08273321780745053 -0.03616095920430999 -0.9892960367000958 -0.03616095920430999 -0.9892960367000958 -0.10031273231178192 0.09153410466608784
1.36 -0.1095363935062709 -0.08285097455400714 -0.048867053733144816 -0.9885556566601016 -0.04886705373314494 -0.9885556566601016 -0.09979218686020269 0.0943629922027948
1.37 -0.1113891789553609 -0.08294084318508987 -0.06155136289265131 -0.9876509752946929 -0.061551362892651375 -0.9876509752946929 -0.09919583314299714 0.09719628501936024
1.38 -0.11324206642432333 -0.08300295469069302 -0.074211912233222 -0.9865825703550293 -0.07421191223322206 -0.9865825703550292 -0.09852355671093307 0.10003209019919787
1.39 -0.11509476621057368 -0.083037439748842 -0.0868467361951368 -0.985351038540631 -0.08684673619513658 -0.9853510385406308 -0.09777528422660922 0.1028685166898717
1.4 -0.11694699019535787 -0.08304442882926333 -0.09945387832978862 -0.9839569955393832 -0.09945387832978829 -0.9839569955393831 -0.09695098340522584 0.10570367602666893
1.41 -0.11879845182840473 -0.08302405229204628 -0.11203139152214911 -0.9824010760568447 -0.11203139152214922 -0.9824010760568448 -0.0960506629414725 0.10853568306160824
1.42 -0.12064886611474171 -0.08297644048151964 -0.12457733821420765 -0.9806839338352186 -0.1245773382142077 -0.9806839338352185 -0.09507437242228864 0.11136265669724249
1.43 -0.12249794960354256 -0.08290172381555277 -0.13708979062915388 -0.9788062416623492 -0.13708979062915377 -0.9788062416623494 -0.09402220222526453 0.11418272062462925
1.44 -0.12434542037888112 -0.08280003287048157 -0.1495668309960802 -0.9767686913711163 -0.1495668309960802 -0.9767686913711162 -0.09289428340248412 0.11699400406485616
1.45 -0.12619099805226872 -0.08267149846185039 -0.16200655177498052 -0.9745719938295224 -0.16200655177498063 -0.9745719938295228 -0.09169078754963193 0.11979464251351331
1.46 -0.12803440375686526 -0.08251625172114779 -0.1744070558818499 -0.9722168789218224 -0.1744070558818499 -0.9722168789218224 -0.09041192666020541 0.12258277848752458
1.47 -0.12987536014325923 -0.08233442416870956 -0.18676645691369437 -0.9697040955209818 -0.18676645691369448 -0.9697040955209824 -0.08905795296469939 0.12535656227375655
1.48 -0.1317135913767153 -0.08212614778294819 -0.19908287937326594 -0.9670344114527568 -0.19908287937326594 -0.9670344114527569 -0.08762915875464444 0.12811415267883397
1.49 -0.13354882313579658 -0.0818915550660694 -0.21135445889334717 -0.964208613451687 -0.21135445889334706 -0.9642086134516871 -0.08612587619140984 0.13085371777960236
1.5 -0.13538078261227368 -0.08163077910641538 -0.2235793424604313 -0.9612275071092576 -0.22357934246043124 -0.9612275071092576 -0.08454847709968608 0.13357343567368912
1.51 -0.13720919851223923 -0.08134395363757838 -0.23575568863763768 -0.9580919168144939 -0.23575568863763768 -0.9580919168144937 -0.08289737274559231 0.13627149522962628
1.52 -0.13903380105834376 -0.08103121309441934 -0.24788166778671258 -0.9548026856872354 -0.2478816677867132 -0.9548026856872354 -0.08117301359936836 0.13894609683599918
1.53 -0.14085432199308595 -0.08069269266611245 -0.25995546228898136 -0.9513606755043313 -0.2599554622889809 -0.9513606755043311 -0.079375889082621 0.14159545314910843
1.54 -0.14267049458308242 -0.0803285283463419 -0.27197526676511674 -0.9477667666189762 -0.27197526676511663 -0.9477667666189761 -0.0775065273001185 0.1442177898386305
1.55 -0.14448205362425354 -0.07993885698076089 -0.28393928829359993 -0.9440218578734276 -0.28393928829359993 -0.9440218578734278 -0.07556549475613861 0.14681134633077694
1.56 -0.14628873544786133 -0.0795238163118286 -0.295845746627749 -0.9401268665052974 -0.29584574662774926 -0.9401268665052973 -0.0735533960553933 0.14937437654845928
1.57 -0.14809027792734164 -0.07908354502112017 -0.30769287441121124 -0.9360827280476302 -0.307692874411211 -0.93608272804763 -0.07147087358855862 0.15190514964797872
1.58 -0.14988642048587553 -0.07861818276921814 -0.3194789173918004 -0.9318903962229782 -0.3194789173918004 -0.9318903962229782 -0.06931860720246637 0.15440195075176488
1.59 -0.15167690410464538 -0.0781278702332763 -0.3312021346335887 -0.9275508428316515 -0.33120213463358883 -0.9275508428316515 -0.06709731385501638 0.15686308167669752
1.6 -0.15346147133172625 -0.07761274914234532 -0.3428607987271416 -0.9230650576343266 -0.34286079872714176 -0.9230650576343266 -0.06480774725488393 0.1592868616575554
1.61 -0.1552398662915684 -0.07707296231054943 -0.35445319599782177 -0.918434048229211 -0.3544531959978217 -0.9184340482292112 -0.06245069748611162 0.16167162806514535
1.62 -0.15701183469502167 -0.07650865366819583 -0.3659776267120542 -0.9136588399239194 -0.3659776267120542 -0.9136588399239193 -0.06002699061768532 0.16401573711866924
1.63 -0.15877712384986284 -0.07591996829089533 -0.37743240528148453 -0.9087404756022358 -0.3774324052814846 -0.9087404756022358 -0.057537488298205666 0.16631756459189886
1.64 -0.16053548267178563 -0.07530705242677001 -0.3888158604649482 -0.903680015585932 -0.38881586046494854 -0.9036800155859321 -0.054983087335776094 0.16857550651273856
1.65 -0.16228666169581396 -0.07467005352182196 -0.4001263355681712 -0.8984785374917874 -0.40012633556817107 -0.8984785374917872 -0.05236471926324547 0.17078797985575533
1.66 -0.1640304130881035 -0.07400912024352682 -0.4113621886411291 -0.8931371360839704 -0.41136218864112933 -0.8931371360839706 -0.049683349888942914 0.1729534232272764
1.67 -0.16576649065809856 -0.07332440250272848 -0.42252179267301126 -0.8876569231219422 -0.42252179267301126 -0.8876569231219422 -0.046939978833069336 0.17507029754265296
1.68 -0.16749464987101056 -0.07261605147388388 -0.4336035357847077 -0.8820390272039988 -0.4336035357847077 -0.8820390272039988 -0.04413563904989568 0.17713708669530256
1.69 -0.16921464786058843 -0.07188421961373538 -0.4446058214187737 -0.8762845936066254 -0.4446058214187738 -0.8762845936066255 -0.041271396335959956 0.17915229821714657
1.7 -0.17092624344215018 -0.07112906067845201 -0.455527068526799 -0.8703947841197741 -0.45552706852679925 -0.8703947841197741 -0.03834834882442887 0.18111446393007266
1.71 -0.17262919712585253 -0.07035072973931078 -0.4663657117541461 -0.8643707768782133 -0.46636571175414593 -0.8643707768782132 -0.035367626465829284 0.1830221405880554
1.72 -0.1743232711301675 -0.06954938319695915 -0.4771202016219872 -0.8582137661890749 -0.4771202016219875 -0.8582137661890749 -0.032330390495343364 0.18487391050958
1.73 -0.17600822939554422 -0.06872517879431699 -0.48778900470660574 -0.8519249623557229 -0.48778900470660597 -0.851924962355723 -0.029237832886879422 0.18666838220001997
1.74 -0.17768383759823222 -0.0678782756281676 -0.4983706038159074 -0.845505591498068 -0.49837060381590753 -0.845505591498068 -0.026091175794136737 0.1884041909636289
1.75 -0.17934986316424276 -0.06700883415947816 -0.5088634981631026 -0.8389568953694494 -0.5088634981631028 -0.8389568953694495 -0.022891670978886926 0.19007999950481497
1.76 -0.18100607528342857 -0.06611701622250467 -0.5192662035375168 -0.8322801311702056 -0.5192662035375173 -0.8322801311702055 -0.019640599226708196 0.19169449851837472
1.77 -0.18265224492366228 -0.06520298503271729 -0.5295772524724948 -0.825476571358039 -0.5295772524724948 -0.8254765713580392 -0.016339269750410605 0.19324640726836992
1.78 -0.18428814484509035 -0.06426690519359252 -0.5397951944103484 -0.8185475034552889 -0.5397951944103484 -0.8185475034552888 -0.01298901958140145 0.19473447415534176
1.79 -0.18591354961445258 -0.06330894270230855 -0.5499185958643432 -0.8114942298532333 -0.5499185958643433 -0.8114942298532333 -0.00959121294924115 0.1961574772715628
1.8 -0.18752823561944099 -0.062329264954387335 -0.5599460405776545 -0.8043180676135065 -0.5599460405776547 -0.8043180676135068 -0.006147240649656788 0.19751422494403606
1.81 -0.1891319810830897 -0.06132804074731787 -0.5698761296792985 -0.7970203482667624 -0.5698761296792982 -0.7970203482667623 -0.002658519401275928 0.19880355626495932
1.82 -0.1907245660781734 -0.06030544028319591 -0.5797074818369834 -0.78960241760865 -0.5797074818369833 -0.78960241760865 0.0008735088086463988 0.20002434160938223
1.83 -0.1923057725416073 -0.059261635170416604 -0.5894387334068757 -0.7820656354932431 -0.5894387334068755 -0.7820656354932429 0.004447377389224618 0.20117548313978575
1.84 -0.19387538428882686 -0.05819679842445261 -0.599068538580242 -0.7744113756239878 -0.5990685385802416 -0.7744113756239877 0.008061595821382625 0.20225591529733405
1.85 -0.1954331870281414 -0.05711110446774946 -0.6085955695269547 -0.7666410253422823 -0.6085955695269548 -0.7666410253422825 0.011714650343443616 0.20326460527954318
1.86 -0.19697896837504378 -0.05600472912876936 -0.6180185165358392 -0.7587559854137726 -0.6180185165358387 -0.7587559854137726 0.015405004646577136 0.20420055350412825
1.87 -0.19851251786646687 -0.0548778496402139 -0.6273360881518362 -0.7507576698124641 -0.6273360881518361 -0.7507576698124642 0.019131100579799446 0.2050627940587983
1.88 -0.20003362697497604 -0.05373064463645278 -0.6365470113099776 -0.7426475055027345 -0.6365470113099775 -0.7426475055027346 0.022891358864226493 0.2058503951367734
1.89 -0.2015420891228851 -0.052563294150187935 -0.6456500314661464 -0.7344269322193362 -0.6456500314661466 -0.7344269322193361 0.026684179816265943 0.20656245945780813
1.9 -0.20303769969628713 -0.05137597960838003 -0.6546439127246104 -0.7260974022454749 -0.6546439127246102 -0.7260974022454751 0.030507944079435658 0.20719812467451387
1.91 -0.2045202560589908 -0.05016888382746022 -0.6635274379623245 -0.7176603801890507 -0.6635274379623244 -0.7176603801890505 0.034361013364491794 0.2077565637637828
1.92 -0.2059895575663525 -0.048942191007856344 -0.672299408949983 -0.7091173427571443 -0.6722994089499835 -0.7091173427571444 0.03824173119754331 0.20823698540312202
1.93 -0.207445405578996 -0.04769608672785469 -0.6809586464698164 -0.7004697785288324 -0.6809586464698161 -0.7004697785288321 0.04214842367582645 0.2086386343317145
1.94 -0.20888760347641094 -0.04643075793682226 -0.6895039904301159 -0.6917191877263974 -0.6895039904301158 -0.6917191877263975 0.0460794002308109 0.20896079169603488
1.95 -0.21031595667042502 -0.04514639294780982 -0.6979342999764991 -0.6828670819850413 -0.697934299976499 -0.6828670819850415 0.050032954398307614 0.20920277537985396
1.96 -0.21173027261853955 -0.04384318142956117 -0.7062484535998882 -0.673914984121144 -0.706248453599888 -0.6739149841211439 0.05400736459523663 0.20936394031847447
1.97 -0.21313036083712295 -0.04252131439794519 -0.7144453492412088 -0.6648644278991693 -0.7144453492412086 -0.6648644278991693 0.05800089490272435 0.2094436787970494
1.98 -0.21451603291445684 -0.04118098420683565 -0.7225239043928059 -0.6557169577972799 -0.7225239043928062 -0.65571695779728 0.06201179585518092 0.2094414207328441
1.99 -0.21588710252362736 -0.03982238453845498 -0.7304830561965716 -0.646474128771738 -0.7304830561965715 -0.6464741287717379 0.0660383052350216 0.20935663394130696
2.0 -0.21724338543525626 -0.038445710393202326 -0.7383217615387888 -0.6371375060201627 -0.7383217615387889 -0.6371375060201627 0.07007864887268161 0.2091888243858293
2.01 -0.21858469953006684 -0.03705115807898393 -0.746038997141681 -0.6277086647437141 -0.7460389971416813 -0.6277086647437139 0.07413104145157776 0.20893753641107346
2.02 -0.21991086481127967 -0.035638925200067305 -0.7536337596516844 -0.6181891899082761 -0.7536337596516844 -0.6181891899082763 0.07819368731766531 0.2086023529597689
2.03 -0.22122170341683325 -0.034209210645467024 -0.7611050657244317 -0.6085806760046967 -0.7611050657244318 -0.6085806760046968 0.08226478129324591 0.20818289577287089
2.04 -0.2225170396314257 -0.032762214576891935 -0.7684519521064582 -0.5988847268081701 -0.7684519521064583 -0.5988847268081698 0.0863425094946591 0.20767882557299533
2.05 -0.2237966998983721 -0.031298138416260335 -0.7756734757136311 -0.5891029551368059 -0.7756734757136314 -0.5891029551368061 0.09042505015351666 0.20708984223104793
2.06 -0.22506051283127532 -0.02981718483279979 -0.7827687137063115 -0.5792369826094604 -0.7827687137063113 -0.5792369826094604 0.09451057444112029 0.20641568491596726
2.07 -0.22630830922550596 -0.028319557729753433 -0.7897367635612481 -0.5692884394028993 -0.7897367635612481 -0.5692884394028992 0.09859724729569837 0.20565613222752704
2.08 -0.22753992206948892 -0.02680546223070008 -0.7965767431402231 -0.5592589640083409 -0.7965767431402232 -0.5592589640083407 0.10268322825211522 0.20481100231212845
2.09 -0.22875518655579022 -0.02527510466550574 -0.8032877907554382 -0.5491502029874409 -0.8032877907554382 -0.549150202987441 0.10676667227368838 0.20388015296153986
2.1 -0.22995394009200665 -0.023728692555921325 -0.8098690652316689 -0.5389638107278013 -0.8098690652316688 -0.5389638107278014 0.11084573058575518 0.20286348169454085
2.11 -0.23113602231145172 -0.022166434600838232 -0.8163197459651891 -0.5287014491980279 -0.8163197459651892 -0.5287014491980279 0.11491855151063306 0.20176092582143526
2.12 -0.23230127508363585 -0.02058854066121605 -0.8226390329794732 -0.5183647877024228 -0.8226390329794733 -0.5183647877024229 0.11898328130361129 0.2005724624914116
2.13 -0.23344954252454053 -0.018995221744694257 -0.82882614697769 -0.5079555026353565 -0.8288261469776902 -0.5079555026353565 0.12303806498961706 0.1992981087227289
2.14 -0.2345806710066833 -0.017386689989901595 -0.8348803293920068 -0.4974752772353726 -0.8348803293920071 -0.4974752772353723 0.1270810472001963 0.19793792141572167
2.15 -0.23569450916896903 -0.01576315865047284 -0.8408008424296998 -0.4869258013390895 -0.8408008424297 -0.4869258013390896 0.13111037301045103 0.1964919973486218
2.16 -0.23679090792633295 -0.014124842078788377 -0.846586969116108 -0.4763087711349464 -0.8465869691161079 -0.4763087711349465 0.13512418877557494 0.19496047315620252
2.17 -0.23786972047916582 -0.012471955709442581 -0.85223801333442 -0.46562588891684625 -0.85223801333442 -0.46562588891684614 0.13912064296663257 0.19334352529125914
2.18 -0.23893080232252611 -0.010804716042457904 -0.857753299862329 -0.4548788628377549 -0.857753299862329 -0.45487886283775486 0.14309788700522094 0.19164136996894943
2.19 -0.23997401125513285 -0.00912334062625051 -0.8631321744055535 -0.4440694066632954 -0.8631321744055533 -0.44406940666329536 0.147054076096663 0.18985426309402
2.2 -0.2409992073881445 -0.007428048040360159 -0.8683740036282631 -0.43319923952539824 -0.8683740036282634 -0.4331992395253983 0.15098737006137836 0.18798250017095902
2.21 -0.24200625315371654 -0.0057190578779548334 -0.8734781751803967 -0.4222700856760553 -0.8734781751803965 -0.42227008567605534 0.15489593416407405 0.1860264161971189
2.22 -0.2429950133133414 -0.003996590728117748 -0.878444097721914 -0.41128367424121975 -0.8784440977219141 -0.41128367424121964 0.15877793994041078 0.18398638553885918
2.23 -0.24396535496596827 -0.0022608681579283155 -0.8832712009439939 -0.4002417389749032 -0.8832712009439943 -0.40024173897490317 0.16263156602079057 0.1818628217907723
2.24 -0.24491714755590366 -0.0005121126943462839 -0.8879589355871856 -0.3891460180135222 -0.8879589355871859 -0.3891460180135222 0.16645499895091895 0.17965617761805677
2.25 -0.24585026288049 0.0012494521940947453 -0.8925067734565428 -0.37799825363052697 -0.8925067734565431 -0.37799825363052686 0.17024643400879697 0.17736694458211322
2.26 -0.2467645750975656 0.0030236021157723364 -0.8969142074337642 -0.3668001919913701 -0.8969142074337642 -0.3668001919913699 0.17400407601779935 0.1749956529494433
2.27 -0.2476599607327028 0.004810111774630602 -0.9011807514863461 -0.3555535829088509 -0.9011807514863458 -0.355553582908851 0.17772614015549448 0.172542871483943
2.28 -0.24853629868622631 0.006608754989000501 -0.9053059406737793 -0.3442601795988855 -0.9053059406737795 -0.3442601795988854 0.1814108527578712 0.1700092072226833
2.29 -0.24939347024001082 0.008419304710575212 -0.9092893311508101 -0.3329217384367358 -0.9092893311508099 -0.33292173843673595 0.18505645211863345 0.1673953052352812
2.3 -0.25023135906405813 0.010241533043530815 -0.9131305001677755 -0.3215400187137454 -0.9131305001677752 -0.32154001871374543 0.18866118928322853 0.16470184836697216
2.31 -0.2510498512228552 0.012075211263788937 -0.9168290460680517 -0.3101167823946277 -0.9168290460680516 -0.3101167823946277 0.19222332883727872 0.16192955696550035
2.32 -0.251848835181514 0.013920109838410744 -0.9203845882826306 -0.29865379387533114 -0.9203845882826309 -0.29865379387533114 0.19574114968908882 0.15907918859194733
2.33 -0.25262820181168855 0.015775998445115978 -0.9237967673218356 -0.28715281974153745 -0.9237967673218358 -0.2871528197415374 0.19921294584590094 0.15615153771563417
2.34 -0.2533878443972795 0.017642645991920662 -0.9270652447642194 -0.2756156285278192 -0.9270652447642195 -0.2756156285278193 0.20263702718357943 0.1531474353932264
2.35 -0.25412765863991715 0.019519820636886877 -0.9301897032426583 -0.2640439904775001 -0.9301897032426585 -0.2640439904775 0.2060117202094029 0.15006774893219266
2.36 -0.2548475426642282 0.021407289807975474 -0.9331698464276567 -0.25243967730325517 -0.9331698464276567 -0.25243967730325506 0.209335368817649 0.14691338153876118
2.37 -0.2555473970228904 0.023304820222999983 -0.936005399007911 -0.2408044619484795 -0.9360053990079111 -0.2408044619484793 0.21260633503766332 0.14368527195053044
2.38 -0.25622712470146736 0.025212177909671223 -0.9386961066681263 -0.2291401183494734 -0.9386961066681263 -0.22914011834947326 0.21582299977409808 0.14038439405389896
2.39 -0.2568866311230332 0.02712912822572707 -0.9412417360641372 -0.21744842119846824 -0.9412417360641374 -0.21744842119846827 0.2189837635390221 0.13701175648648004
2.4 -0.2575258241525826 0.029055435879146916 -0.943642074795342 -0.20573114570752427 -0.9436420747953421 -0.2057311457075244 0.2220870471755981 0.13356840222467278
2.41 -0.25814461410123185 0.030990864948435583 -0.9458969313744855 -0.19399006737335017 -0.9458969313744854 -0.19399006737335023 0.22513129257303136 0.1300554081565789
2.42 -0.2587429137302054 0.032935178902981 -0.9480061351948027 -0.18222696174305675 -0.9480061351948028 -0.182226961743057 0.22811496337249895 0.1264738846404385
2.43 -0.25932063825461715 0.03488814062347277 -0.9499695364945666 -0.17044360418088564 -0.9499695364945664 -0.1704436041808858 0.2310365456637673 0.12282497504878682
2.44 -0.2598777053470435 0.03684951242238012 -0.9517870063190547 -0.15864176963594764 -0.9517870063190549 -0.15864176963594753 0.23389454867221818 0.11910985529852544
2.45 -0.2604140351408872 0.03881905606448578 -0.9534584364799601 -0.14682323241099288 -0.95345843647996 -0.146823232410993 0.23668750543600264 0.11532973336710876
2.46 -0.26092955023354053 0.04079653278746372 -0.9549837395122831 -0.13498976593224563 -0.9549837395122832 -0.13498976593224568 0.23941397347304558 0.11148584879505859
2.47 -0.26142417568934173 0.042781703322506755 -0.9563628486287173 -0.12314314252033245 -0.9563628486287173 -0.12314314252033257 0.2420725354376318 0.10757947217501446
2.48 -0.26189783904233005 0.04477432791498724 -0.9575957176715684 -0.11128513316233514 -0.9575957176715685 -0.11128513316233489 0.24466179976630836 0.10361190462754706
2.49 -0.26235047029880376 0.04677416634515939 -0.9586823210622333 -0.09941750728498426 -0.9586823210622332 -0.09941750728498432 0.24718040131284288 0.09958447726394681
2.5 -0.2627820019396732 0.04878097794888425 -0.9596226537482476 -0.08754203252903944 -0.9596226537482477 -0.08754203252903926 0.2496270019719774 0.09549855063623025
2.51 -0.2631923689226248 0.050794521638389545 -0.9604167311479623 -0.07566047452485787 -0.9604167311479623 -0.075660474524858 0.2520002912917324 0.09135551417458367
2.52 -0.2635815086840815 0.05281455592304382 -0.961064589092844 -0.06377459666920035 -0.9610645890928441 -0.0637745966692003 0.2542989870740104 0.08715678561249558
2.53 -0.2639493611409762 0.054840838930154005 -0.9615662837674481 -0.05188615990328285 -0.9615662837674483 -0.05188615990328285 0.25652183596325895 0.08290381039981193
2.54 -0.2642958686923295 0.05687312842577502 -0.9619218916470877 -0.03999692249210241 -0.9619218916470876 -0.03999692249210239 0.25866761402295957 0.0785980611039656
2.55 -0.2646209762206388 0.05891118183553108 -0.9621315094332166 -0.028108639805064922 -0.9621315094332166 -0.028108639805064842 0.26073512729970816 0.07424103679963139
2.56 -0.26492463109307973 0.060954756265442625 -0.9621952539865755 -0.01622306409793193 -0.9621952539865755 -0.01622306409793183 0.2627232123746641 0.06983426244706537
2.57 -0.26520678316251917 0.06300360852275956 -0.9621132622581067 -0.004341944296109908 -0.9621132622581067 -0.004341944296110121 0.26463073690214933 0.06537928825938216
2.58 -0.26546738476834664 0.06505749513679127 -0.9618856912176792 0.00753297422069483 -0.9618856912176794 0.007532974220694982 0.26645660013517786 0.060877689059045136
2.59 -0.26570639073712066 0.06711617237973597 -0.9615127177806512 0.019399949832436068 -0.961512717780651 0.019399949832435842 0.26819973343771286 0.05633106362382853
2.6 -0.26592375838303545 0.069179396287504 -0.9609945387322958 0.031257244891282635 -0.9609945387322958 0.03125724489128257 0.2698591007834438 0.051741034022529275
2.61 -0.2661194475082102 0.07124692268052937 -0.9603313706501218 0.04310312593275017 -0.9603313706501221 0.043103125932750064 0.27143369924089 0.047109244940703295
2.62 -0.2662934204027985 0.07331850718457328 -0.959523449824113 0.05493586388538379 -0.9595234498241126 0.05493586388538352 0.2729225594446325 0.04243736299670605
2.63 -0.26644564184492736 0.07539390525150814 -0.9585710321749177 0.06675373427898487 -0.9585710321749178 0.06675373427898497 0.27432474605249507 0.03772707604831981
2.64 -0.2665760791004595 0.07747287218008751 -0.9574743931700263 0.07855501745135555 -0.9574743931700263 0.07855501745135562 0.27563935818849095 0.032980092490254014
2.65 -0.26668470192258725 0.07955516313669439 -0.9562338277379435 0.09033799875354351 -0.9562338277379437 0.09033799875354344 0.27686552987135893 0.02819814054281171
2.66 -0.2667714825512576 0.08164053317606558 -0.9548496501804078 0.10210096875357683 -0.9548496501804079 0.10210096875357687 0.2780024304285239 0.023382967532009503
2.67 -0.2668363957124303 0.08372873726199348 -0.9533221940826732 0.11384222343866882 -0.9533221940826735 0.1138422234386691 0.27904926489531673 0.018536339161450154
2.68 -0.2668794186171721 0.08581953028799699 -0.9516518122218862 0.12556006441587672 -0.9516518122218866 0.12556006441587683 0.2800052743993001 0.013660038776247989
2.69 -0.2669005309605872 0.08791266709796587 -0.9498388764735846 0.13725279911119873 -0.9498388764735844 0.1372527991111987 0.280869736529545 0.008755866619303014
2.7 -0.26689971492058906 0.09000790250677064 -0.9478837777163489 0.14891874096710314 -0.9478837777163491 0.14891874096710314 0.28164196569071837 0.0038256390802343127
2.71 -0.26687695515651355 0.09210499132083977 -0.9457869257346403 0.16055620963846298 -0.9457869257346404 0.1605562096384631 0.282321313441842 -0.001128812062726606
2.72 -0.2668322388075751 0.09420368835870019 -0.9435487491198388 0.17216353118689454 -0.9435487491198388 0.1721635311868944 0.28290716881958833 -0.006105640407569578
2.73 -0.26676555549117004 0.09630374847148085 -0.9411696951695282 0.1837390382734776 -0.9411696951695283 0.18373903827347746 0.28339895864599085 -0.011102985699756991
2.74 -0.26667689730102717 0.0984049265633756 -0.9386502297850433 0.19528107034985567 -0.9386502297850433 0.19528107034985578 0.28379614782044826 -0.016118974609581584
2.75 -0.26656625880520957 0.10050697761206485 -0.9359908373673151 0.20678797384769504 -0.9359908373673151 0.206787973847695 0.28409823959590724 -0.021151721515310765
2.76 -0.2664336370439678 0.10260965668909514 -0.9331920207110402 0.21825810236649537 -0.9331920207110402 0.21825810236649557 0.28430477583911934 -0.02619932929180487
2.77 -0.26627903152744786 0.10471271898021228 -0.9302543008972017 0.22968981685974432 -0.9302543008972014 0.22968981685974427 0.28441533727487 -0.03125989010428942
2.78 -0.2661024442332562 0.10681591980565162 -0.9271782171839728 0.24108148581940028 -0.927178217183973 0.24108148581940061 0.28442954371408424 -0.03633148620695996
2.79 -0.2659038796038834 0.10891901464037675 -0.9239643268960294 0.2524314854586985 -0.9239643268960295 0.2524314854586985 0.28434705426572215 -0.041412190746097026
2.8 -0.26568334454398773 0.11102175913427295 -0.920613205312298 0.26373819989327296 -0.9206132053122978 0.26373819989327296 0.2841675675323827 -0.04650006856737305
2.81 -0.2654408484175431 0.11312390913228901 -0.9171254455521751 0.2750000213205719 -0.9171254455521752 0.27500002132057205 0.2838908217895391 -0.05159317702701867
2.82 -0.2651764030448511 0.11522522069452783 -0.9135016584602333 0.28621535019758193 -0.9135016584602331 0.28621535019758176 0.2835165951483356 -0.05668956680652968
2.83 -0.2648900226994212 0.11732545011628573 -0.9097424724894562 0.29738259541683576 -0.9097424724894557 0.2973825954168354 0.28304470570188733 -0.06178728273058613
2.84 -0.264581724104718 0.11942435394803748 -0.9058485335830143 0.30850017448069533 -0.9058485335830145 0.3085001744806955 0.28247501165502126 -0.06688436458785381
2.85 -0.26425152643078365 0.1215216890153683 -0.9018205050546292 0.31956651367392314 -0.9018205050546294 0.31956651367392325 0.2818074114374116 -0.0719788479543426
2.86 -0.2638994512907298 0.12361721243884907 -0.8976590674675317 0.33058004823450915 -0.8976590674675319 0.33058004823450904 0.28104184380006636 -0.07706876501899292
2.87 -0.2635255227371085 0.12571068165385804 -0.8933649185120585 0.3415392225227696 -0.8933649185120587 0.3415392225227698 0.28017828789512417 -0.08215214541115905
2.88 -0.2631297672581572 0.12780185443034298 -0.888938772881906 0.35244249018869583 -0.8889387728819059 0.3524424901886959 0.2792167633389356 -0.08722701702965872
2.89 -0.2627122137739271 0.12989048889252963 -0.8843813621490715 0.3632883143375683 -0.8843813621490715 0.3632883143375683 0.2781573302583989 -0.09229140687306679
2.9 -0.26227289363229034 0.13197634353856819 -0.8796934346375066 0.37407516769380417 -0.8796934346375069 0.3740751676938044 0.2770000893205369 -0.09734334187090754
2.91 -0.26181184060483337 0.13405917726012465 -0.8748757552955134 0.38480153276306234 -0.8748757552955134 0.38480153276306234 0.2757451817453005 -0.10238084971543497
2.92 -0.26132909088263295 0.13613874936191225 -0.8699291055669021 0.39546590199258275 -0.8699291055669021 0.39546590199258275 0.2743927893015919 -0.10740195969365258
2.93 -0.26082468307192463 0.1382148195811625 -0.8648542832609512 0.40606677792976714 -0.8648542832609513 0.40606677792976714 0.2729431342865129 -0.1124047035192556
2.94 -0.2602986581896551 0.14028714810703855 -0.8596521024211768 0.4166026733789935 -0.8596521024211766 0.4166026733789933 0.27139647948784024 -0.11738711616415956
2.95 -0.25975105965893186 0.14235549559998625 -0.854323393192955 0.42707211155666697 -0.854323393192955 0.42707211155666686 0.2697531281297452 -0.1223472366892884
2.96 -0.25918193330436373 0.14441962321102753 -0.8488690016900161 0.43747362624449604 -0.848869001690016 0.43747362624449593 0.2680134238017745 -0.12728310907429127
2.97 -0.2585913273472973 0.14647929260099093 -0.8432897898598295 0.4478057619410087 -0.8432897898598295 0.44780576194100863 0.266177750371119 -0.13219278304586535
2.98 -0.2579792924009509 0.1485342659596845 -0.8375866353479224 0.45806707401128727 -0.8375866353479223 0.4580670740112871 0.2642465318782053 -0.13707431490435038
2.99 -0.2573458814654503 0.15058430602500442 -0.8317604313611342 0.46825612883493833 -0.8317604313611343 0.4682561288349384 0.26222023241564013 -0.14192576834827278
3.0 -0.25669114992276143 0.1526291761019878 -0.8258120865298578 0.4783715039522908 -0.8258120865298578 0.4783715039522907 0.26009935599056416 -0.14674521529651677
