! Created with skrf 2.1.0 (http://scikit-rf.org).
# GHz S RI R 55.71 
!freq ReS11 ImS11 ReS21 ImS21 ReS12 ImS12 ReS22 ImS22
0.5 0.00548389627283867 0.05659259326636826 0.9021052846172656 -0.4053879102523712 0.9021052846172655 -0.4053879102523711 0.023681936259624878 0.05297249891109574
0.51 0.005470496383051157 0.05271882672083725 0.8961715375733766 -0.41974619893734055 0.8961715375733766 -0.4197461989373405 0.02286313575813021 0.049105608227035684
0.52 0.0053842779045369955 0.0489416381720198 0.8900299108239449 -0.43388273398780414 0.890029910823945 -0.43388273398780414 0.021914294554945875 0.04539130208461579
0.53 0.005229245419545775 0.045257141103738525 0.8836873729194643 -0.4478021971978576 0.8836873729194643 -0.44780219719785763 0.020844201398137013 0.04182680713838407
0.54 0.005009074659674215 0.041661689580095695 0.8771504180298872 -0.46150891582080605 0.8771504180298872 -0.46150891582080605 0.019661044374335787 0.03840944130275747
0.55 0.0047271454774864465 0.03815186212283396 0.8704251149174969 -0.4750068877301707 0.8704251149174971 -0.4750068877301708 0.018372470598494423 0.0351366144074258
0.56 0.004386571093873676 0.0347244466574263 0.8635171503493261 -0.4882998048815871 0.8635171503493257 -0.488299804881587 0.016985639193723662 0.03200582739822253
0.57 0.003990224087327639 0.03137642647740526 0.8564318676453782 -0.501391075163956 0.8564318676453782 -0.501391075163956 0.015507268381842075 0.029014670431539723
0.58 0.0035407595276316936 0.02810496717256975 0.8491743009637485 -0.5142838427321098 0.8491743009637487 -0.51428384273211 0.013943677396486403 0.026160820140088893
0.59 0.003040635602196331 0.02490740446499678 0.8417492058425674 -0.5269810069142151 0.8417492058425676 -0.5269810069142151 0.01230082383726231 0.023442036291420408
0.6 0.002492132036828596 0.02178123289662957 0.8341610864493586 -0.5394852397860385 0.8341610864493587 -0.5394852397860385 0.010584337003103378 0.020856158015365254
0.61 0.0018973665730100953 0.018724095313156504 0.8264142199290285 -0.5517990025016707 0.8264142199290283 -0.5517990025016705 0.00879954767389432 0.01840109974016675
0.62 0.0012583097296417368 0.015733773090604065 0.8185126781907662 -0.5639245604667794 0.8185126781907662 -0.5639245604667794 0.006951514749794575 0.016074846947830096
0.63 0.0005767980479381707 0.012808177053279721 0.8104603474303923 -0.5758639974363555 0.8104603474303924 -0.5758639974363554 0.005045049106253199 0.01387545183566526
0.64 -0.00014545400709618708 0.009945339034232229 0.8022609456469956 -0.5876192286144307 0.8022609456469955 -0.5876192286144306 0.0030847349781908044 0.011801028952081495
0.65 -0.0009068433369203814 0.0071434040321023025 0.7939180383802447 -0.5991920128286254 0.7939180383802446 -0.5991920128286254 0.001074949148296921 0.009849750859447252
0.66 -0.001705868558564307 0.004400622921016777 0.7854350528666485 -0.6105839638477087 0.7854350528666486 -0.6105839638477087 -0.0009801218190388268 0.008019843864595474
0.67 -0.0025411212959896056 0.0017153456729584599 0.7768152907887681 -0.6217965609057753 0.7768152907887682 -0.6217965609057753 -0.0030764660856756575 0.006309583847721885
0.68 -0.003411278311217853 -0.0009139849452333183 0.7680619397703073 -0.6328311584921994 0.7680619397703073 -0.6328311584921995 -0.005210232602319166 0.004717292212543176
0.69 -0.004315094384997498 -0.0034888392354408514 0.7591780837517125 -0.6436889954622672 0.7591780837517126 -0.6436889954622673 -0.007377718560543308 0.0032413319742719444
0.7 -0.005251395867458401 -0.0060106060251136455 0.7501667123649868 -0.6543712035193313 0.7501667123649867 -0.6543712035193314 -0.009575358088214903 0.0018801039969447428
0.71 -0.006219074828487666 -0.008480597747681014 0.7410307294125672 -0.6648788151155453 0.7410307294125671 -0.664878815115545 -0.011799712059073167 0.0006320433876281557
0.72 -0.007217083745685256 -0.010900055174574534 0.7317729605429846 -0.6752127708146229 0.7317729605429847 -0.6752127708146232 -0.014047458901903013 -0.0005043839481278392
0.73 -0.008244430674853469 -0.01327015182479186 0.7223961602054519 -0.685373926156762 0.7223961602054518 -0.6853739261567618 -0.016315386307610927 -0.0015306845877119098
0.74 -0.009300174854184462 -0.015591998075955179 0.712903017956248 -0.6953630580627227 0.712903017956248 -0.6953630580627228 -0.018600383743803867 -0.002448340709815706
0.75 -0.010383422698767974 -0.01786664499898339 0.703296164181647 -0.7051808708112137 0.703296164181647 -0.7051808708112136 -0.02089943569640177 -0.0032588130513050402
0.76 -0.011493324146821313 -0.020095087936788124 0.6935781752949763 -0.714828001621017 0.6935781752949763 -0.714828001621017 -0.023209615566551343 -0.00396354370531517
0.77 -0.012629069323263836 -0.02227826984582378 0.6837515784591358 -0.7243050258668593 0.6837515784591358 -0.7243050258668592 -0.025528080158811414 -0.004563958764139399
0.78 -0.01378988548996542 -0.02441708441785809 0.6738188558803477 -0.733612461955729 0.6738188558803476 -0.733612461955729 -0.027852064703376325 -0.005061470811111781
0.79 -0.014975034255271346 -0.02651237899798416 0.6637824487140391 -0.7427507758882503 0.663782448714039 -0.7427507758882501 -0.030178878361114037 -0.005457481266133172
0.8 -0.01618380901830246 -0.028564957313645337 0.653644760619447 -0.7517203855278054 0.6536447606194471 -0.7517203855278055 -0.03250590016550972 -0.005753382589780567
0.81 -0.01741553262608817 -0.030575582028297847 0.6434081609957063 -0.7605216645982875 0.6434081609957064 -0.7605216645982875 -0.03483057536032167 -0.005950560351123658
0.82 -0.018669555223854144 -0.032544977132284006 0.6330749879288139 -0.7691549464297704 0.6330749879288141 -0.7691549464297706 -0.03715041209593178 -0.006050395164462264
0.83 -0.01994525228080564 -0.03447383018250854 0.6226475508758489 -0.7776205274698426 0.6226475508758489 -0.7776205274698426 -0.03946297845109387 -0.0060542645002080505
0.84 -0.021242022775523554 -0.036362794401624814 0.6121281331101857 -0.7859186705770022 0.6121281331101859 -0.7859186705770023 -0.04176589975007973 -0.005963544375103832
0.85 -0.022559287526694314 -0.03821249064660661 0.6015189939490361 -0.7940496081112209 0.6015189939490362 -0.7940496081112209 -0.04405685614817489 -0.005779610926877141
0.86 -0.023896487656291876 -0.04002350925583265 0.5908223707825799 -0.802013544835628 0.59082237078258 -0.8020135448356281 -0.04633358046109126 -0.005503841878326968
0.87 -0.02525308317361348 -0.041796411783106655 0.5800404809220351 -0.8098106606421973 0.580040480922035 -0.8098106606421972 -0.04859385621621684 -0.005137617895683191
0.88 -0.026628551669676905 -0.04353173262640468 0.5691755232823562 -0.8174411131133339 0.5691755232823561 -0.8174411131133339 -0.050835515905708166 -0.004682323845942604
0.89 -0.02802238711251067 -0.045229980558545296 0.5582296799137378 -0.824905039930347 0.5582296799137377 -0.8249050399303469 -0.05305643942331443 -0.004139349957702509
0.9 -0.029434098734757948 -0.0468916401664439 0.5472051173947624 -0.8322025611389834 0.5472051173947625 -0.8322025611389836 -0.055254552668496104 -0.0035100928898502293
0.91 -0.03086321000583083 -0.0485171732051094 0.5361039880988284 -0.8393337812814167 0.5361039880988285 -0.8393337812814168 -0.05742782630291071 -0.0027959567122817315
0.92 -0.03230925768157006 -0.05010701987208602 0.5249284313444111 -0.8462987914033849 0.524928431344411 -0.8462987914033849 -0.05957427464569198 -0.0019983538026494027
0.93 -0.03377179092501983 -0.051661600007621364 0.5136805744387408 -0.8530976709445457 0.5136805744387407 -0.8530976709445456 -0.06169195469516403 -0.0011187056629592186
0.94 -0.035250370492504624 -0.05318131422545521 0.5023625336236183 -0.8597304895194906 0.5023625336236183 -0.8597304895194905 -0.06377896526572767 -0.0001584436596704072
0.95 -0.03674456797973354 -0.054666544978759585 0.49097641493128874 -0.8661973085963482 0.49097641493128874 -0.866197308596348 -0.06583344622964515 0.0008809903092318333
0.96 -0.0382539651231146 -0.0561176575654438 0.4795243149576117 -0.8724981830793808 0.4795243149576118 -0.8724981830793808 -0.0678535778543358 0.001998143216864624
0.97 -0.03977815315190472 -0.0575350010767197 0.4680083215591033 -0.8786331628015174 0.46800832155910327 -0.8786331628015173 -0.06983758022660322 0.003191550376629024
0.98 -0.04131673218719485 -0.05891890929255657 0.4564305144798708 -0.8846022939323565 0.4564305144798708 -0.8846022939323566 -0.07178371275593833 0.004459734974933709
0.99 -0.04286931068408377 -0.060269701527386296 0.4447929659139322 -0.8904056203067542 0.4447929659139321 -0.8904056203067545 -0.07369027374970129 0.005801207664602902
1.0 -0.04443550491370732 -0.061587683429189424 0.4330977410079439 -0.8960431846787726 0.43309774100794407 -0.8960431846787725 -0.0755556000535824 0.0072144662162469606
1.01 -0.046014938482075794 -0.06287314773486641 0.4213468983089401 -0.9015150299054079 0.4213468983089402 -0.9015150299054079 -0.07737806675127984 0.008697995225006017
1.02 -0.047607241882929315 -0.0641263749846019 0.40954249016129557 -0.9068212000642378 0.4095424901612955 -0.9068212000642377 -0.07915608691782501 0.010250265870202144
1.03 -0.04921205208205402 -0.06534763419773605 0.39768656305677574 -0.9119617415088012 0.39768656305677574 -0.911961741508801 -0.08088811142143089 0.011869735725552832
1.04 -0.05082901213072335 -0.06653718351248677 0.38578115794122536 -0.9169367038653022 0.38578115794122536 -0.9169367038653023 -0.0825726287691438 0.013554848617718968
1.05 -0.05245777080610327 -0.06769527079170987 0.37382831048115484 -0.9217461409739615 0.37382831048115495 -0.9217461409739617 -0.08420816499195063 0.015304034531048045
1.06 -0.054097982276659975 -0.06882213419672631 0.3618300512932184 -0.9263901117781121 0.3618300512932183 -0.9263901117781123 -0.08579328356532746 0.017115709556498545
1.07 -0.05574930579074659 -0.0699180027311212 0.34978840613935186 -0.9308686811639522 0.34978840613935197 -0.930868681163952 -0.0873265853615243 0.018988275882801456
1.08 -0.05741140538670719 -0.07098309675627686 0.3377053960901011 -0.9351819207536364 0.33770539609010114 -0.9351819207536362 -0.08880670863016123 0.020920121828024905
1.09 -0.05908394962295834 -0.07201762848030129 0.32558303765849134 -0.9393299096542467 0.3255830376584913 -0.9393299096542466 -0.09023232900396791 0.02290962190977321
1.1 -0.06076661132663572 -0.07302180242188984 0.31342334290660195 -0.9433127351649992 0.3134233429066019 -0.9433127351649994 -0.09160215952673355 0.024955136952344057
1.11 -0.06245906735950173 -0.07399581585056572 0.30122831952683904 -0.9471304934448861 0.3012283195268389 -0.9471304934448861 -0.09291495070074934 0.027055014229233905
1.12 -0.06416099839991135 -0.07493985920464462 0.28899997089975393 -0.9507832901428155 0.28899997089975393 -0.9507832901428155 -0.0941694905512223 0.029207587639455884
1.13 -0.06587208873972682 -0.07585411648818735 0.276740296130121 -0.9542712409921925 0.2767402961301212 -0.9542712409921926 -0.09536460470532404 0.031411177916195826
1.14 -0.06759202609515239 -0.07673876564812175 0.26445129006284923 -0.9575944723717408 0.26445129006284906 -0.9575944723717406 -0.09649915648370087 0.03366409286639352
1.15 -0.06932050143054652 -0.07759397893263245 0.25213494328019825 -0.9607531218342553 0.2521349432801986 -0.9607531218342554 -0.09757204700242711 0.035964627639902165
1.16 -0.07105720879432914 -0.07841992323186167 0.23979324208165909 -0.9637473386048946 0.23979324208165906 -0.9637473386048948 -0.09858221528352613 0.0383110650269189
1.17 -0.0728018451661745 -0.07921676040188497 0.22742816844775943 -0.9665772840504816 0.22742816844775948 -0.9665772840504817 -0.09952863837231153 0.040701675782442236
1.18 -0.07455411031473849 -0.07998464757287224 0.21504169998896422 -0.969243132121225 0.21504169998896416 -0.9692431321212251 -0.10041033145992329 0.04313471897655652
1.19 -0.07631370666522053 -0.08072373744229032 0.20263580988077254 -0.971745069766186 0.20263580988077223 -0.9717450697661861 -0.10122634800954577 0.04560844236938257
1.2 -0.07808033917611627 -0.081434178553941 0.1902124667860062 -0.9740832973236963 0.19021246678600612 -0.9740832973236961 -0.10197577988489412 0.048121082809587275
1.21 -0.07985371522455897 -0.08211611556359318 0.1777736347652549 -0.9762580288879273 0.17777363476525485 -0.9762580288879273 -0.10265775747965702 0.05067086665537143
1.22 -0.08163354449969307 -0.08276968949190856 0.16532127317634515 -0.9782694926526758 0.1653212731763453 -0.978269492652676 -0.10327144984666581 0.053256010216903585
1.23 -0.08341953890356227 -0.08339503796532777 0.15285733656365835 -0.9801179312334086 0.15285733656365824 -0.9801179312334086 -0.10381606482564806 0.05587472021919516
1.24 -0.08521141245903031 -0.08399229544553997 0.14038377453806397 -0.9818036019685398 0.14038377453806386 -0.9818036019685398 -0.10429084916849732 0.05852519428444884
1.25 -0.08700888122428505 -0.08456159344812061 0.12790253164818724 -0.9833267772008405 0.12790253164818724 -0.9833267772008405 -0.10469508866106252 0.061205621432940345
1.26 -0.08881166321351144 -0.08510306075088979 0.11541554724367223 -0.9846877445398596 0.11541554724367228 -0.9846877445398595 -0.10502810824052652 0.06391418260152716
1.27 -0.09061947832334219 -0.08561682359251405 0.10292475533107737 -0.985886807106167 0.10292475533107727 -0.9858868071061668 -0.10528927210751017 0.06664905117889822
1.28 -0.09243204826472509 -0.08610300586183435 0.09043208442297894 -0.9869242837581782 0.09043208442297918 -0.9869242837581781 -0.1054779838320859 0.06940839355671338
1.29 -0.09424909649986896 -0.08656172927838648 0.07793945738084208 -0.9878005093022983 0.07793945738084238 -0.9878005093022983 -0.10559368645295228 0.07219036969579733
1.3 -0.09607034818395385 -0.0869931135645466 0.0654487912521663 -0.9885158346870715 0.06544879125216636 -0.9885158346870716 -0.10563586256906049 0.0749931337065814
1.31 -0.09789553011130894 -0.08739727660971074 0.052961997102390246 -0.9890706271819782 0.05296199710239029 -0.9890706271819781 -0.10560403442303921 0.07781483444300552
1.32 -0.09972437066578624 -0.0877743346268961 0.04048097984201542 -0.9894652705415041 0.040480979842015076 -0.9894652705415043 -0.10549776397580443 0.08065361610911492
1.33 -0.10155659977507034 -0.0881244023021295 0.028007638049367845 -0.9897001651550691 0.028007638049367976 -0.9897001651550693 -0.10531665297178694 0.08350761887760313
1.34 -0.10339194886868525 -0.08844759293696543 0.015543863789402314 -0.9897757281833509 0.015543863789402314 -0.989775728183351 -0.10506034299424642 0.0863749795195744
1.35 -0.10523015083947437 -0.08874401858445893 0.003091542428924115 -0.9896923936815446 0.003091542428924162 -0.9896923936815445 -0.10472851551017863 0.08925383204481571
1.36 -0.10707094000834097 -0.08901379017890454 -0.009347447551411685 -0.9894506127100565 -0.009347447551411512 -0.9894506127100565 -0.10432089190436315 0.09214230835188024
1.37 -0.1089140520920523 -0.08925701765962854 -0.021771234747995048 -0.9890508534330947 -0.02177123474799508 -0.9890508534330952 -0.10383723350212641 0.0950385388873067
1.38 -0.1107592241739251 -0.08947381008910907 -0.03417795502773029 -0.9884936012056107 -0.03417795502773042 -0.9884936012056105 -0.10327734158042598 0.09794065331331167
1.39 -0.11260619467721603 -0.089664275765687 -0.04656575172378313 -0.9877793586490283 -0.046565751723783154 -0.987779358649028 -0.10264105736689998 0.10084678118330324
1.4 -0.11445470334105595 -0.08982852233111248 -0.058932775833322605 -0.986908645716157 -0.058932775833322515 -0.9869086457161566 -0.10192826202654492 0.10375505262458193
1.41 -0.11630449119877581 -0.08996665687315859 -0.07127718621700214 -0.9858819997456791 -0.07127718621700226 -0.985881999745679 -0.10113887663571733 0.1066635990276074
1.42 -0.11815530055848059 -0.0900787860235263 -0.08359714979990986 -0.9846999755065919 -0.08359714979990979 -0.9846999755065919 -0.1002728621431802 0.10957055374121917
1.43 -0.1200068749857347 -0.09016501605124735 -0.0958908417737705 -0.9833631452329329 -0.0958908417737705 -0.9833631452329327 -0.09933021931793792 0.11247405277321387
1.44 -0.12185895928823745 -0.09022545295178465 -0.10815644580016706 -0.9818720986491579 -0.10815644580016695 -0.9818720986491583 -0.09831098868362753 0.11537223549569571
1.45 -0.12371129950236345 -0.09026020253201843 -0.12039215421455887 -0.980227442986468 -0.1203921542145587 -0.9802274429864678 -0.09721525043925905 0.11826324535462014
1.46 -0.12556364288146046 -0.09026937049129774 -0.13259616823091938 -0.9784298029904009 -0.13259616823091944 -0.9784298029904007 -0.0960431243661141 0.1211452305829696
1.47 -0.1274157378857974 -0.09025306249872239 -0.144766698146775 -0.9764798209199833 -0.14476669814677479 -0.9764798209199832 -0.09479476972063594 0.1240163449170077
1.48 -0.12926733417406452 -0.0902113842668231 -0.15690196354848587 -0.974378156538726 -0.15690196354848587 -0.974378156538726 -0.09347038511316508 0.12687474831506557
1.49 -0.1311181825963311 -0.0901444416217883 -0.16900019351658577 -0.97212548709773 -0.16900019351658582 -0.9721254870977298 -0.0920702083723887 0.12971860767832719
1.5 -0.1329680351883722 -0.09005234057038267 -0.18105962683101895 -0.9697225073111546 -0.1810596268310189 -0.9697225073111547 -0.09059451639539397 0.13254609757308836
1.51 -0.13481664516728545 -0.08993518736369738 -0.19307851217612615 -0.9671699293243123 -0.19307851217612626 -0.9671699293243121 -0.08904362498323065 0.13535540095397683
1.52 -0.13666376692831292 -0.08979308855786401 -0.20505510834522517 -0.9644684826746162 -0.2050551083452251 -0.9644684826746163 -0.08741788866190861 0.1381447098876202
1.53 -0.1385091560428006 -0.08962615107185364 -0.21698768444464614 -0.9616189142456039 -0.21698768444464614 -0.9616189142456039 -0.0857177004887648 0.14091222627627062
1.54 -0.14035256925722145 -0.0894344822424857 -0.22887452009710255 -0.9586219882142821 -0.22887452009710255 -0.9586219882142821 -0.08394349184415992 0.14365616258089237
1.55 -0.14219376449319893 -0.08921818987675217 -0.24071390564424966 -0.9554784859919697 -0.24071390564424966 -0.9554784859919697 -0.08209573220846685 0.14637474254323324
1.56 -0.1440325008484661 -0.08897738230157401 -0.25250414234832996 -0.9521892061588718 -0.2525041423483302 -0.9521892061588714 -0.08017492892434352 0.14906620190640632
1.57 -0.14586853859870458 -0.08871216841108409 -0.26424354259278054 -0.9487549643925648 -0.2642435425927808 -0.9487549643925651 -0.078181626944279 0.15172878913351784
1.58 -0.14770163920020546 -0.088422657711542 -0.27593043008170226 -0.9451765933905885 -0.27593043008170204 -0.9451765933905886 -0.07611640856343094 0.1543607661238831
1.59 -0.14953156529329945 -0.08810896036396756 -0.2875631400380716 -0.9414549427873229 -0.2875631400380717 -0.9414549427873229 -0.07397989313777435 0.15696040892638333
1.6 -0.15135808070650916 -0.08777118722458918 -0.29914001940061946 -0.9375908790653337 -0.2991400194006193 -0.9375908790653338 -0.071772736787601 0.15952600844952047
1.61 -0.1531809504613742 -0.0874094498831827 -0.3106594270192647 -0.9335852854613466 -0.310659427019265 -0.9335852854613468 -0.0694956320864135 0.16205587116773923
1.62 -0.15499994077790352 -0.08702386069939477 -0.3221197338490232 -0.9294390618670249 -0.3221197338490232 -0.9294390618670252 -0.06714930773528281 0.1645483198235852
1.63 -0.15681481908061573 -0.08661453283711489 -0.33351932314229726 -0.9251531247247005 -0.3335193231422972 -0.9251531247247003 -0.06473452822273268 0.16700169412528723
1.64 -0.15862535400512653 -0.08618158029698036 -0.34485659063948204 -0.920728406918221 -0.34485659063948143 -0.920728406918221 -0.062252093470238565 0.1694143514393471
1.65 -0.16043131540524314 -0.08572511794707904 -0.3561299447577929 -0.9161658576590553 -0.3561299447577928 -0.9161658576590551 -0.05970283846343315 0.17178466747773766
1.66 -0.1622324743605324 -0.08524526155192055 -0.36733780677825273 -0.9114664423678065 -0.3673378067782525 -0.9114664423678065 -0.05708763286912421 0.1741110369793096
1.67 -0.16402860318432805 -0.08474212779973989 -0.37847861103076336 -0.9066311425512742 -0.3784786110307633 -0.9066311425512741 -0.054407380638235844 0.17639187438502013
1.68 -0.16581947543214368 -0.0842158343281944 -0.3895508050772009 -0.901660955675191 -0.389550805077201 -0.901660955675191 -0.05166301959479856 0.17862561450660178
1.69 -0.16760486591046186 -0.0836664997485155 -0.40055284989246104 -0.8965568950327841 -0.4005528498924613 -0.8965568950327841 -0.04885552101112236 0.18081071318829553
1.7 -0.16938455068587002 -0.08309424366817048 -0.4114832200434063 -0.8913199896092754 -0.4114832200434064 -0.8913199896092753 -0.045985889169293755 0.18294564796128296
1.71 -0.1711583070945146 -0.08249918671208843 -0.42234040386565097 -0.885951283942448 -0.42234040386565086 -0.8859512839424479 -0.04305516090914666 0.18502891869045798
1.72 -0.1729259137518503 -0.0818814505425027 -0.4331229036381287 -0.8804518379794091 -0.4331229036381286 -0.880451837979409 -0.04006440516286987 0.18705904821318328
1.73 -0.17468715056265482 -0.08124115787746296 -0.4438292357553954 -0.8748227269296559 -0.4438292357553956 -0.874822726929656 -0.037014722476419085 0.1890345829696878
1.74 -0.17644179873129012 -0.08057843250805721 -0.4544579308976133 -0.8690650411145684 -0.45445793089761377 -0.8690650411145681 -0.03390724451790486 0.19095409362476842
1.75 -0.17818964077218505 -0.07989339931440011 -0.46500753419817786 -0.8631798858134392 -0.46500753419817803 -0.8631798858134393 -0.03074313357314859 0.19281617568046225
1.76 -0.17993046052051723 -0.07918618428042073 -0.4754766054089262 -0.857168381106144 -0.47547660540892656 -0.8571683811061441 -0.02752358202859112 0.194619450079368
1.77 -0.18166404314307802 -0.07845691450750104 -0.4858637190629055 -0.8510316617125712 -0.48586371906290565 -0.851031661712571 -0.024249811841757146 0.19636256379829944
1.78 -0.18339017514929765 -0.0777057182270005 -0.49616746463465344 -0.8447708768289063 -0.49616746463465344 -0.8447708768289061 -0.02092307399947918 0.19804419043196328
1.79 -0.18510864440241187 -0.07693272481170763 -0.5063864466979404 -0.8383871899608702 -0.5063864466979403 -0.8383871899608702 -0.017544647964097604 0.19966303076635647
1.8 -0.18681924013075568 -0.07613806478625668 -0.5165192850809613 -0.8318817787540241 -0.5165192850809615 -0.8318817787540244 -0.014115841107852559 0.20121781334159233
1.81 -0.1885217529391666 -0.07532186983654227 -0.526564615018925 -0.8252558348212239 -0.5265646150189253 -0.8252558348212237 -0.010637988135695609 0.20270729500386692
1.82 -0.19021597482047847 -0.07448427281817258 -0.5365210873040117 -0.8185105635673242 -0.536521087304012 -0.8185105635673241 -0.00711245049675668 0.20413026144628382
1.83 -0.19190169916709773 -0.07362540776398702 -0.546387368432686 -0.8116471840112353 -0.546387368432686 -0.8116471840112354 -0.0035406157846983827 0.20548552773826914
1.84 -0.19357872078263888 -0.07274540989067722 -0.5561621407503005 -0.8046669286053992 -0.5561621407503005 -0.8046669286053992 7.610287279041008e-05 0.20677193884330664
1.85 -0.1952468358936157 -0.07184441560453794 -0.5658441025930152 -0.7975710430528029 -0.5658441025930153 -0.7975710430528028 0.00373626743511824 0.20798837012474067
1.86 -0.19690584216116547 -0.07092256250637921 -0.5754319684269518 -0.7903607861215951 -0.5754319684269517 -0.790360786121595 0.007438415580271453 0.2091337278393919
1.87 -0.19855553869280257 -0.0699799893956291 -0.584924468984605 -0.7830374294574048 -0.5849244689846052 -0.7830374294574052 0.011181061346392396 0.2102069496187451
1.88 -0.20019572605418295 -0.06901683627365075 -0.5943203513984634 -0.7756022573934283 -0.5943203513984633 -0.7756022573934284 0.014962695783194183 0.21120700493747363
1.89 -0.2018262062808745 -0.06803324434630854 -0.6036183793318289 -0.7680565667583936 -0.6036183793318288 -0.7680565667583938 0.018781787612930076 0.21213289556907258
1.9 -0.20344678289011636 -0.06702935602579778 -0.6128173331068119 -0.760401666682456 -0.6128173331068119 -0.7604016666824559 0.022636783900655946 0.2129836560283783
1.91 -0.205057260892564 -0.06600531493177438 -0.6219160098294951 -0.7526388784011195 -0.6219160098294948 -0.7526388784011198 0.02652611073349491 0.21375835400076448
1.92 -0.20665744680400477 -0.06496126589179714 -0.6309132235122298 -0.7447695350572562 -0.6309132235122299 -0.7447695350572563 0.030448173908628185 0.2144560907578045
1.93 -0.20824714865703858 -0.06389735494111648 -0.639807805193073 -0.7367949815013012 -0.6398078051930732 -0.7367949815013008 0.034401359629717694 0.21507600155920661
1.94 -0.20982617601271347 -0.06281372932182319 -0.6485986030523377 -0.7287165740896958 -0.6485986030523376 -0.7287165740896956 0.038384035211472926 0.21561725604082935
1.95 -0.2113943399721082 -0.061710537481382874 -0.6572844825262428 -0.720535680481655 -0.6572844825262426 -0.7205356804816548 0.042394549792066014 0.21607905858859178
1.96 -0.2129514531878554 -0.060587929070576196 -0.6658643264176678 -0.7122536794343287 -0.6658643264176679 -0.7122536794343285 0.046431235053093316 0.21646064869810813
1.97 -0.21449732987559555 -0.0594460549408659 -0.6743370350039783 -0.7038719605964313 -0.6743370350039783 -0.7038719605964312 0.050492405946781754 0.216761301319873
1.98 -0.21603178582535648 -0.05828506714120656 -0.6827015261419359 -0.6953919243003989 -0.6827015261419361 -0.695391924300399 0.054576361430137985 0.2169803271898409
1.99 -0.21755463841285227 -0.05710511891432063 -0.6909567353696752 -0.68681498135316 -0.6909567353696752 -0.68681498135316 0.05868138520572538 0.21711707314524592
2.0 -0.21906570661069374 -0.05590636469245467 -0.6991016160057356 -0.6781425528255686 -0.6991016160057353 -0.6781425528255686 0.0628057464687633 0.2171709224255147
2.01 -0.2205648109995049 -0.054688960092635935 -0.7071351392451541 -0.6693760698405743 -0.7071351392451543 -0.6693760698405743 0.06694770066023009 0.21714129495813514
2.02 -0.22205177377894175 -0.053453061911444846 -0.7150562942526125 -0.6605169733602019 -0.7150562942526123 -0.660516973360202 0.07110549022565595 0.2170276476293542
2.03 -0.22352641877860552 -0.05219882811932179 -0.7228640882526266 -0.6515667139713816 -0.7228640882526268 -0.6515667139713817 0.07527734537928617 0.21682947453957613
2.04 -0.22498857146884516 -0.050926417854419107 -0.7305575466167816 -0.6425267516707206 -0.7305575466167814 -0.6425267516707206 0.079461484873293 0.216546307243349
2.05 -0.22643805897144872 -0.0496359914160229 -0.7381357129480185 -0.6333985556482571 -0.7381357129480187 -0.6333985556482571 0.08365611677171304 0.2161777149738339
2.06 -0.22787471007021345 -0.048327710257546966 -0.7455976491619595 -0.6241836040702626 -0.7455976491619594 -0.6241836040702629 0.08785943922878874 0.21572330485164937
2.07 -0.22929835522139208 -0.04700173697912752 -0.7529424355652722 -0.6148833838611604 -0.7529424355652723 -0.6148833838611603 0.0920696412713804 0.21518272207800834
2.08 -0.23070882656401492 -0.045658235319819426 -0.7601691709310926 -0.6054993904846053 -0.7601691709310926 -0.6054993904846053 0.09628490358513009 0.2145556501120532
2.09 -0.2321059579300803 -0.0442973701494163 -0.7672769725714856 -0.5960331277237978 -0.7672769725714851 -0.5960331277237978 0.1005033993040424 0.21384181083231715
2.1 -0.2334895848546079 -0.04291930745990586 -0.7742649764069549 -0.5864861074610697 -0.7742649764069552 -0.5864861074610694 0.10472329480314972 0.21304096468223788
2.11 -0.23485954458555833 -0.04152421435656917 -0.7811323370330178 -0.5768598494568202 -0.7811323370330175 -0.5768598494568201 0.10894275049394116 0.21215291079966267
2.12 -0.23621567609360913 -0.04011225904874251 -0.7878782277838229 -0.5671558811278413 -0.7878782277838227 -0.5671558811278414 0.11315992162220918 0.2111774871302904
2.13 -0.23755782008178877 -0.03868361084024933 -0.7945018407928484 -0.5573757373250889 -0.7945018407928486 -0.5573757373250892 0.11737295906799343 0.21011457052499938
2.14 -0.23888581899496342 -0.0372384401195145 -0.8010023870506567 -0.5475209601109572 -0.801002387050657 -0.5475209601109571 0.12158001014728148 0.20896407682102172
2.15 -0.24019951702917336 -0.035776918349373944 -0.8073790964597334 -0.5375930985361096 -0.8073790964597335 -0.5375930985361097 0.12577921941513606 0.2077259609069323
2.16 -0.2414987601408214 -0.0342992180565911 -0.8136312178864081 -0.5275937084159106 -0.8136312178864081 -0.5275937084159108 0.12996872946991303 0.20640021677142478
2.17 -0.24278339605570398 -0.032805512821087034 -0.8197580192098649 -0.5175243521065194 -0.8197580192098647 -0.5175243521065193 0.13414668175823846 0.20498687753585595
2.18 -0.2440532742778892 -0.03129597726489687 -0.8257587873682622 -0.5073865982806812 -0.8257587873682618 -0.507386598280681 0.1383112173804137 0.20348601547054546
2.19 -0.2453082460984355 -0.029770787040868107 -0.8316328284019491 -0.49718202170328357 -0.8316328284019489 -0.49718202170328385 0.14246047789590333 0.2018977419948333
2.2 -0.24654816460395224 -0.028230118821096828 -0.837379467493817 -0.4869122030067105 -0.837379467493817 -0.4869122030067103 0.1465926061285935 0.20022220766088547
2.21 -0.24777288468499878 -0.026674150285126944 -0.8429980490067722 -0.47657872846604893 -0.8429980490067722 -0.4765787284660488 0.15070574697146674 0.19845960212127156
2.22 -0.24898226304432075 -0.025103060107912432 -0.8484879365183546 -0.4661831897741962 -0.8484879365183549 -0.46618318977419604 0.15479804819037693 0.196610154080322
2.23 -0.2501761582049236 -0.0235170279475509 -0.853848512852512 -0.4557271838169046 -0.8538485128525121 -0.45572718381690475 0.158867661226589 0.19467413122929084
2.24 -0.2513544305179803 -0.021916234432805673 -0.8590791801085376 -0.44521231244782705 -0.8590791801085379 -0.445212312447827 0.16291274199774852 0.19265184016535947
2.25 -0.25251694217057297 -0.02030086115041331 -0.8641793596871912 -0.434640182263586 -0.8641793596871912 -0.43464018226358586 0.16693145169696277 0.19054362629451266
2.26 -0.2536635571932681 -0.018671090632196637 -0.8691484923140103 -0.4240124043789251 -0.8691484923140105 -0.4240124043789252 0.17092195758965667 0.1883498737183374
2.27 -0.25479414146752327 -0.017027106341979764 -0.8739860380598309 -0.4133305942019852 -0.8739860380598313 -0.41333059420198537 0.17488243380788412 0.18607100510479183
2.28 -0.2559085627329252 -0.015369092662323988 -0.8786914763585311 -0.40259637120973535 -0.8786914763585308 -0.40259637120973524 0.1788110621417661 0.18370748154300762
2.29 -0.25700669059425957 -0.01369723488108289 -0.8832643060220056 -0.39181135872362066 -0.8832643060220059 -0.3918113587236206 0.18270603282773593 0.18125980238218586
2.3 -0.25808839652840876 -0.012011719177790231 -0.8877040452524025 -0.3809771836854426 -0.8877040452524027 -0.38097718368544264 0.18656554533326983 0.1787285050546605
2.31 -0.25915355389108286 -0.010312732609885661 -0.8920102316516211 -0.3700954764335411 -0.8920102316516211 -0.3700954764335411 0.19038780913778222 0.17611416488321052
2.32 -0.2602020379233753 -0.008600463098783824 -0.8961824222280967 -0.3591678704792905 -0.8961824222280969 -0.35916787047929066 0.19417104450937303 0.17341739487270075
2.33 -0.26123372575815196 -0.00687509941579674 -0.9002201934008875 -0.3481960022839679 -0.9002201934008874 -0.34819600228396796 0.19791348327710762 0.17063884548614494
2.34 -0.26224849642626735 -0.005136831167913525 -0.9041231410010832 -0.33718151103602034 -0.9041231410010833 -0.3371815110360205 0.20161336959852216 0.16777920440529112
2.35 -0.26324623086260857 -0.003385848783445826 -0.9078908802705457 -0.32612603842877824 -0.9078908802705457 -0.32612603842877846 0.20526896072203854 0.16483919627583016
2.36 -0.2642268119119705 -0.0016223434975435672 -0.9115230458580108 -0.31503122843864334 -0.9115230458580107 -0.31503122843864345 0.20887852774398827 0.16181958243733915
2.37 -0.265190124334758 0.000153492662411929 -0.9150192918125569 -0.30389872710379057 -0.9150192918125574 -0.3038987271037905 0.21244035635993605 0.15872116063807568
2.38 -0.26613605481251845 0.0019414668915308658 -0.9183792915744771 -0.2927301823034213 -0.9183792915744773 -0.2927301823034213 0.21595274761000344 0.1555447647347471
2.39 -0.26706449195330134 0.003741385622249349 -0.9216027379635436 -0.28152724353760306 -0.9216027379635437 -0.281527243537603 0.21941401861789053 0.15229126437738172
2.4 -0.267975326296851 0.0055530545392695405 -0.9246893431647313 -0.27029156170772434 -0.9246893431647312 -0.2702915617077242 0.22282250332330866 0.148961564679437
2.41 -0.26886845031962586 0.007376278594598024 -0.9276388387113662 -0.2590247888976071 -0.9276388387113664 -0.25902478889760705 0.2261765532075181 0.14555660587328698
2.42 -0.2697437584396497 0.009210862022680531 -0.9304509754657633 -0.24772857815530036 -0.9304509754657632 -0.24772857815530028 0.22947453801169357 0.14207736295123086
2.43 -0.2706011470211937 0.011056608355624067 -0.9331255235973496 -0.2364045832755991 -0.9331255235973496 -0.23640458327559907 0.23271484644782428 0.1385248452921809
2.44 -0.27144051437928923 0.01291332043850394 -0.9356622725583014 -0.22505445858330503 -0.9356622725583014 -0.2250544585833052 0.2358958869018701 0.13490009627418065
2.45 -0.27226176078407277 0.014780800444749893 -0.9380610310567163 -0.21367985871727785 -0.9380610310567163 -0.21367985871727754 0.23901608812889022 0.13120419287292215
2.46 -0.2730647884649638 0.016658849891606195 -0.9403216270273442 -0.2022824384152909 -0.9403216270273439 -0.20228243841529095 0.2420738999398746 0.1274382452464265
2.47 -0.27384950161467536 0.0185472696556614 -0.9424439075998896 -0.1908638522997341 -0.9424439075998897 -0.190863852299734 0.24506779388000174 0.12360339630606404
2.48 -0.27461580639305955 0.02044585998844336 -0.9444277390649218 -0.17942575466418764 -0.944427739064922 -0.17942575466418773 0.24799626389805868 0.1197008212740929
2.49 -0.2753636109307867 0.02235442053207403 -0.9462730068374018 -0.16796979926089575 -0.9462730068374016 -0.16796979926089578 0.25085782700675535 0.11573172722789998
2.5 -0.2760928253328603 0.024272750334981212 -0.9479796154178527 -0.1564976390891655 -0.9479796154178527 -0.1564976390891653 0.25365102393367994 0.11169735263113076
2.51 -0.2768033616819716 0.02620064786766193 -0.9495474883512087 -0.1450109261847295 -0.9495474883512086 -0.14501092618472936 0.2563744197626321 0.1075989668519108
2.52 -0.2774951340416867 0.028137911038493807 -0.9509765681833373 -0.13351131141008657 -0.9509765681833376 -0.13351131141008651 0.25902660456508836 0.10343786966834596
2.53 -0.2781680584594752 0.030084337209590396 -0.9522668164152911 -0.12200044424585271 -0.9522668164152911 -0.12200044424585275 0.2616061940215504 0.09921539076151599
2.54 -0.27882205296957896 0.03203972321269534 -0.9534182134552843 -0.11047997258314773 -0.9534182134552843 -0.11047997258314772 0.26411183003253313 0.0949328891961642
2.55 -0.27945703759572 0.03400386536511443 -0.9544307585684423 -0.09895154251704716 -0.954430758568442 -0.0989515425170473 0.26654218131895646 0.09059175288929877
2.56 -0.28007293435364955 0.03597655948567981 -0.9553044698243228 -0.08741679814111367 -0.9553044698243229 -0.08741679814111382 0.26889594401170425 0.08619339806692139
2.57 -0.2806696672535429 0.037957600910740755 -0.9560393840422594 -0.07587738134304338 -0.9560393840422594 -0.0758773813430435 0.27117184223012375 0.08173926870910928
2.58 -0.28124716230223434 0.03994678451018436 -0.9566355567345218 -0.06433493160144156 -0.9566355567345219 -0.0643349316014416 0.2733686286492409 0.07723083598366895
2.59 -0.28180534750530073 0.04194390470347259 -0.957093062047347 -0.05279108578376187 -0.9570930620473475 -0.05279108578376173 0.275485085055469 0.07266959766860578
2.6 -0.2823441528689891 0.043948755475704274 -0.9574119926998477 -0.04124747794541598 -0.9574119926998476 -0.04124747794541594 0.2775200228906025 0.0680570775636263
2.61 -0.2828635104019938 0.04596113039368688 -0.957592459920817 -0.029705739130092043 -0.9575924599208173 -0.029705739130092057 0.2794722837838777 0.06339482489092822
2.62 -0.2833633541170811 0.04798082262202479 -0.9576345933834828 -0.01816749717129434 -0.9576345933834827 -0.018167497171294438 0.2813407400719043 0.058684413685510174
2.63 -0.283843620032565 0.05000762493921532 -0.9575385411381995 -0.0066343764951220675 -0.9575385411381994 -0.006634376495122133 0.2831242953062592 0.05392744217525103
2.64 -0.28430424617363403 0.05204132975375091 -0.9573044695431274 0.004892002075681053 -0.9573044695431274 0.004892002075681093 0.2848218847485565 0.049125532151007574
2.65 -0.28474517257353266 0.054081729120224784 -0.956932563192922 0.01641002151639865 -0.9569325631929224 0.016410021516398966 0.28643247585279646 0.04428032832698674
2.66 -0.28516634127459467 0.05612861475543994 -0.9564230248454457 0.02791806879370438 -0.9564230248454456 0.027918068793704332 0.28795506873481524 0.03939349769164301
2.67 -0.28556769632913465 0.0581817780545126 -0.9557760753465392 0.03941453505770899 -0.9557760753465396 0.03941453505770906 0.28938869662865196 0.03446672884936686
2.68 -0.28594918380019424 0.060241010106974434 -0.9549919535528753 0.05089781583266349 -0.9549919535528754 0.05089781583266354 0.2907324263296632 0.029501731353224283
2.69 -0.2863107517621504 0.06230610171286463 -0.954070916252916 0.062366311206299034 -0.954070916252916 0.062366311206298986 0.2919853586242116 0.02450023502901606
2.7 -0.28665235030118047 0.06437684339881616 -0.9530132380860035 0.07381842601780303 -0.9530132380860036 0.07381842601780296 0.2931466287057709 0.01946398929092164
2.71 -0.28697393151559103 0.06645302543412704 -0.9518192114596082 0.08525257004439095 -0.9518192114596081 0.08525257004439067 0.29421540657728634 0.014394762449005697
2.72 -0.2872754495160094 0.06853443784681892 -0.9504891464647597 0.09666715818647403 -0.9504891464647597 0.09666715818647395 0.29519089743964005 0.009294341008857298
2.73 -0.28755686042543926 0.07062087043968035 -0.949023370789687 0.1080606106514052 -0.9490233707896876 0.10806061065140522 0.29607234206607386 0.004164528963640254
2.74 -0.2878181223791834 0.07271211280628898 -0.9474222296316921 0.11943135313577814 -0.9474222296316921 0.11943135313577839 0.2968590171624298 -0.000992852921161704
2.75 -0.2880591955246334 0.07480795434701512 -0.9456860856072805 0.13077781700627886 -0.9456860856072804 0.130777817006279 0.2975502357130718 -0.006175967830028593
2.76 -0.28828004202092855 0.07690818428500255 -0.9438153186605864 0.14209843947906045 -0.9438153186605864 0.14209843947906042 0.298145347312361 -0.011382963626426119
2.77 -0.28848062603848734 0.07901259168212404 -0.9418103259700982 0.1533916637976432 -0.9418103259700982 0.15339166379764307 0.2986437384815568 -0.016611973588284517
2.78 -0.2886609137584091 0.08112096545491061 -0.9396715218537289 0.1646559394093093 -0.9396715218537292 0.16465593940930934 0.29904483297102946 -0.02186111714963945
2.79 -0.28882087337175133 0.08323309439045311 -0.9373993376722444 0.17588972213999213 -0.9373993376722441 0.1758897221399923 0.29934809204767027 -0.027128500648148538
2.8 -0.28896047507868217 0.08534876716227312 -0.934994221731085 0.18709147436764823 -0.9349942217310848 0.18709147436764825 0.29955301476739193 -0.03241221807818991
2.81 -0.2890796910875096 0.08746777234616275 -0.9324566391805941 0.19825966519408408 -0.9324566391805938 0.1982596651940837 0.29965913823261736 -0.037710351849247314
2.82 -0.289178495613591 0.0895898984359904 -0.9297870719146958 0.20939277061524592 -0.9297870719146959 0.20939277061524583 0.29966603783466456 -0.04302097354928334
2.83 -0.2892568648781216 0.09171493385947202 -0.9269860184680301 0.22048927368994864 -0.9269860184680302 0.22048927368994853 0.29957332748093607 -0.04834214471281032
2.84 -0.2893147771068064 0.09384266699390663 -0.9240539939115838 0.23154766470704016 -0.9240539939115838 0.23154766470704022 0.2993806598068285 -0.05367191759335215
2.85 -0.2893522125284158 0.09597288618187214 -0.9209915297468364 0.2425664413509834 -0.9209915297468363 0.2425664413509833 0.29908772637228775 -0.05900833594000032
2.86 -0.2893691533732249 0.09810537974688358 -0.9177991737984472 0.2535441088658515 -0.9177991737984473 0.2535441088658514 0.2986942578429335 -0.06434943577776386
2.87 -0.28936558387134237 0.10023993600901168 -0.9144774901055152 0.264479180217733 -0.9144774901055152 0.26447918021773315 0.2982000241556926 -0.06969324619141036
2.88 -0.2893414902509262 0.10237634330045549 -0.9110270588114247 0.27537017625551785 -0.911027058811425 0.2753701762555178 0.2976048346688748 -0.07503779011248783
2.89 -0.28929686073629224 0.10451438998107662 -0.9074484760523202 0.2862156258700764 -0.9074484760523203 0.2862156258700763 0.29690853829664227 -0.08038108510923442
2.9 -0.2892316855459114 0.10665386445388657 -0.9037423538442114 0.2970140661518186 -0.9037423538442114 0.29701406615181875 0.29611102362782105 -0.08572114417906543
2.91 -0.28914595689030304 0.10879455518048967 -0.8999093199687627 0.3077640425466139 -0.8999093199687627 0.3077640425466138 0.29521221902901223 -0.09105597654332954
2.92 -0.28903966896982347 0.11093625069647846 -0.8959500178577655 0.3184641090100788 -0.8959500178577654 0.3184641090100787 0.2942120927319695 -0.09638358844403169
2.93 -0.28891281797235013 0.11307873962678312 -0.8918651064763364 0.3291128281602167 -0.8918651064763363 0.32911282816021664 0.2931106529052062 -0.10170198394221619
2.94 -0.2887654020708666 0.11522181070097312 -0.887655260204859 0.33970877142841005 -0.8876552602048595 0.33970877142841027 0.291907947709813 -0.10700916571770434
2.95 -0.2885974214209464 0.11736525276850528 -0.8833211687196955 0.35025051920874806 -0.8833211687196951 0.350250519208748 0.2906040653394647 -0.11230313586987238
2.96 -0.28840887815813854 0.11950885481392741 -0.8788635368726927 0.3607366610056959 -0.8788635368726928 0.36073666100569607 0.289199134044602 -0.11758189671917567
2.97 -0.28819977639525807 0.12165240597202803 -0.8742830845695065 0.3711657955800947 -0.8742830845695068 0.37116579558009494 0.2876933221407813 -0.12284345160910082
2.98 -0.2879701222195812 0.1237956955429328 -0.8695805466467738 0.3815365310934854 -0.8695805466467738 0.38153653109348523 0.2860868380011938 -0.1280858057082443
2.99 -0.28771992368994714 0.1259385130071534 -0.8647566727481496 0.3918474852507546 -0.8647566727481494 0.39184748525075425 0.28437993003335427 -0.13330696681221127
3.0 -0.28744919083376963 0.12808064804057726 -0.85981222719924 0.40209728544109974 -0.8598122271992401 0.4020972854410999 0.2825728866399714 -0.13850494614502842
