! rfsim (KiCad + openEMS)
# HZ S RI R 50
5.000000e+08 -9.967692659e-01 5.812848187e-02 1.464901466e-03 1.585300041e-02 1.445968161e-03 1.583296915e-02 -9.976102535e-01 5.531725256e-02
5.100000e+08 -9.966517574e-01 5.929619964e-02 1.518205527e-03 1.617521092e-02 1.500530114e-03 1.615655175e-02 -9.975210053e-01 5.643296191e-02
5.200000e+08 -9.965320665e-01 6.046376602e-02 1.572526875e-03 1.649781651e-02 1.556189684e-03 1.648041446e-02 -9.974300330e-01 5.754829806e-02
5.300000e+08 -9.964102131e-01 6.163121954e-02 1.627869145e-03 1.682083400e-02 1.612942113e-03 1.680457422e-02 -9.973373716e-01 5.866329304e-02
5.400000e+08 -9.962862145e-01 6.279860027e-02 1.684236497e-03 1.714428028e-02 1.670783517e-03 1.712904844e-02 -9.972430533e-01 5.977798129e-02
5.500000e+08 -9.961600857e-01 6.396594950e-02 1.741633607e-03 1.746817227e-02 1.729710881e-03 1.745385497e-02 -9.971471083e-01 6.089239937e-02
5.600000e+08 -9.960318395e-01 6.513330958e-02 1.800065651e-03 1.779252690e-02 1.789722047e-03 1.777901201e-02 -9.970495641e-01 6.200658562e-02
5.700000e+08 -9.959014865e-01 6.630072362e-02 1.859538301e-03 1.811736108e-02 1.850815705e-03 1.810453806e-02 -9.969504461e-01 6.312057995e-02
5.800000e+08 -9.957690350e-01 6.746823526e-02 1.920057707e-03 1.844269168e-02 1.912991377e-03 1.843045187e-02 -9.968497772e-01 6.423442355e-02
5.900000e+08 -9.956344912e-01 6.863588856e-02 1.981630487e-03 1.876853549e-02 1.976249403e-03 1.875677234e-02 -9.967475782e-01 6.534815866e-02
6.000000e+08 -9.954978591e-01 6.980372770e-02 2.044263712e-03 1.909490920e-02 2.040590921e-03 1.908351856e-02 -9.966438675e-01 6.646182838e-02
6.100000e+08 -9.953591410e-01 7.097179690e-02 2.107964892e-03 1.942182943e-02 2.106017846e-03 1.941070966e-02 -9.965386616e-01 6.757547643e-02
6.200000e+08 -9.952183370e-01 7.214014021e-02 2.172741961e-03 1.974931262e-02 2.172532854e-03 1.973836485e-02 -9.964319746e-01 6.868914700e-02
6.300000e+08 -9.950754454e-01 7.330880140e-02 2.238603262e-03 2.007737512e-02 2.240139358e-03 2.006650334e-02 -9.963238189e-01 6.980288454e-02
6.400000e+08 -9.949304628e-01 7.447782378e-02 2.305557533e-03 2.040603308e-02 2.308841482e-03 2.039514432e-02 -9.962142046e-01 7.091673365e-02
6.500000e+08 -9.947833841e-01 7.564725016e-02 2.373613888e-03 2.073530250e-02 2.378644045e-03 2.072430691e-02 -9.961031401e-01 7.203073889e-02
6.600000e+08 -9.946342024e-01 7.681712266e-02 2.442781808e-03 2.106519921e-02 2.449552531e-03 2.105401014e-02 -9.959906318e-01 7.314494466e-02
6.700000e+08 -9.944829093e-01 7.798748267e-02 2.513071118e-03 2.139573881e-02 2.521573071e-03 2.138427293e-02 -9.958766844e-01 7.425939509e-02
6.800000e+08 -9.943294952e-01 7.915837075e-02 2.584491976e-03 2.172693674e-02 2.594712412e-03 2.171511406e-02 -9.957613010e-01 7.537413393e-02
6.900000e+08 -9.941739488e-01 8.032982656e-02 2.657054859e-03 2.205880822e-02 2.668977900e-03 2.204655215e-02 -9.956444828e-01 7.648920444e-02
7.000000e+08 -9.940162575e-01 8.150188876e-02 2.730770545e-03 2.239136825e-02 2.744377452e-03 2.237860562e-02 -9.955262297e-01 7.760464930e-02
7.100000e+08 -9.938564076e-01 8.267459503e-02 2.805650098e-03 2.272463163e-02 2.820919533e-03 2.271129271e-02 -9.954065400e-01 7.872051054e-02
7.200000e+08 -9.936943842e-01 8.384798193e-02 2.881704856e-03 2.305861293e-02 2.898613134e-03 2.304463144e-02 -9.952854105e-01 7.983682947e-02
7.300000e+08 -9.935301713e-01 8.502208493e-02 2.958946418e-03 2.339332650e-02 2.977467748e-03 2.337863959e-02 -9.951628367e-01 8.095364660e-02
7.400000e+08 -9.933637517e-01 8.619693835e-02 3.037386626e-03 2.372878648e-02 3.057493344e-03 2.371333473e-02 -9.950388128e-01 8.207100162e-02
7.500000e+08 -9.931951076e-01 8.737257534e-02 3.117037555e-03 2.406500677e-02 3.138700352e-03 2.404873415e-02 -9.949133318e-01 8.318893332e-02
7.600000e+08 -9.930242200e-01 8.854902787e-02 3.197911500e-03 2.440200108e-02 3.221099634e-03 2.438485491e-02 -9.947863856e-01 8.430747955e-02
7.700000e+08 -9.928510692e-01 8.972632669e-02 3.280020964e-03 2.473978286e-02 3.304702467e-03 2.472171379e-02 -9.946579648e-01 8.542667723e-02
7.800000e+08 -9.926756349e-01 9.090450136e-02 3.363378647e-03 2.507836539e-02 3.389520523e-03 2.505932733e-02 -9.945280592e-01 8.654656226e-02
7.900000e+08 -9.924978959e-01 9.208358024e-02 3.447997432e-03 2.541776172e-02 3.475565847e-03 2.539771178e-02 -9.943966576e-01 8.766716956e-02
8.000000e+08 -9.923178303e-01 9.326359045e-02 3.533890379e-03 2.575798468e-02 3.562850839e-03 2.573688313e-02 -9.942637476e-01 8.878853302e-02
8.100000e+08 -9.921354160e-01 9.444455795e-02 3.621070712e-03 2.609904693e-02 3.651388234e-03 2.607685710e-02 -9.941293164e-01 8.991068549e-02
8.200000e+08 -9.919506300e-01 9.562650752e-02 3.709551811e-03 2.644096090e-02 3.741191090e-03 2.641764915e-02 -9.939933500e-01 9.103365878e-02
8.300000e+08 -9.917634490e-01 9.680946274e-02 3.799347203e-03 2.678373887e-02 3.832272763e-03 2.675927445e-02 -9.938558340e-01 9.215748368e-02
8.400000e+08 -9.915738492e-01 9.799344609e-02 3.890470555e-03 2.712739291e-02 3.924646898e-03 2.710174794e-02 -9.937167529e-01 9.328218991e-02
8.500000e+08 -9.913818067e-01 9.917847889e-02 3.982935666e-03 2.747193492e-02 4.018327412e-03 2.744508427e-02 -9.935760911e-01 9.440780618e-02
8.600000e+08 -9.911872968e-01 1.003645814e-01 4.076756460e-03 2.781737664e-02 4.113328476e-03 2.778929787e-02 -9.934338318e-01 9.553436018e-02
8.700000e+08 -9.909902949e-01 1.015517728e-01 4.171946981e-03 2.816372966e-02 4.209664507e-03 2.813440288e-02 -9.932899582e-01 9.666187858e-02
8.800000e+08 -9.907907760e-01 1.027400711e-01 4.268521387e-03 2.851100540e-02 4.307350152e-03 2.848041322e-02 -9.931444526e-01 9.779038706e-02
8.900000e+08 -9.905887149e-01 1.039294936e-01 4.366493944e-03 2.885921515e-02 4.406400276e-03 2.882734259e-02 -9.929972971e-01 9.891991032e-02
9.000000e+08 -9.903840862e-01 1.051200564e-01 4.465879024e-03 2.920837008e-02 4.506829953e-03 2.917520443e-02 -9.928484732e-01 1.000504721e-01
9.100000e+08 -9.901768645e-01 1.063117747e-01 4.566691100e-03 2.955848120e-02 4.608654453e-03 2.952401197e-02 -9.926979621e-01 1.011820953e-01
9.200000e+08 -9.899670241e-01 1.075046629e-01 4.668944744e-03 2.990955945e-02 4.711889235e-03 2.987377824e-02 -9.925457447e-01 1.023148017e-01
9.300000e+08 -9.897545392e-01 1.086987344e-01 4.772654624e-03 3.026161564e-02 4.816549938e-03 3.022451604e-02 -9.923918015e-01 1.034486123e-01
9.400000e+08 -9.895393841e-01 1.098940019e-01 4.877835502e-03 3.061466049e-02 4.922652370e-03 3.057623802e-02 -9.922361127e-01 1.045835475e-01
9.500000e+08 -9.893215329e-01 1.110904773e-01 4.984502232e-03 3.096870463e-02 5.030212505e-03 3.092895658e-02 -9.920786583e-01 1.057196264e-01
9.600000e+08 -9.891009598e-01 1.122881717e-01 5.092669763e-03 3.132375863e-02 5.139246474e-03 3.128268401e-02 -9.919194181e-01 1.068568676e-01
9.700000e+08 -9.888776389e-01 1.134870955e-01 5.202353133e-03 3.167983297e-02 5.249770561e-03 3.163743239e-02 -9.917583717e-01 1.079952889e-01
9.800000e+08 -9.886515444e-01 1.146872587e-01 5.313567475e-03 3.203693810e-02 5.361801195e-03 3.199321365e-02 -9.915954984e-01 1.091349073e-01
9.900000e+08 -9.884226503e-01 1.158886702e-01 5.426328013e-03 3.239508440e-02 5.475354948e-03 3.235003958e-02 -9.914307775e-01 1.102757392e-01
1.000000e+09 -9.881909309e-01 1.170913388e-01 5.540650068e-03 3.275428222e-02 5.590448532e-03 3.270792184e-02 -9.912641882e-01 1.114178001e-01
1.010000e+09 -9.879563604e-01 1.182952724e-01 5.656549055e-03 3.311454189e-02 5.707098795e-03 3.306687195e-02 -9.910957095e-01 1.125611052e-01
1.020000e+09 -9.877189130e-01 1.195004787e-01 5.774040491e-03 3.347587371e-02 5.825322716e-03 3.342690132e-02 -9.909253202e-01 1.137056688e-01
1.030000e+09 -9.874785633e-01 1.207069648e-01 5.893139993e-03 3.383828796e-02 5.945137408e-03 3.378802124e-02 -9.907529992e-01 1.148515047e-01
1.040000e+09 -9.872352854e-01 1.219147374e-01 6.013863280e-03 3.420179495e-02 6.066560115e-03 3.415024293e-02 -9.905787252e-01 1.159986262e-01
1.050000e+09 -9.869890539e-01 1.231238028e-01 6.136226184e-03 3.456640496e-02 6.189608208e-03 3.451357749e-02 -9.904024772e-01 1.171470461e-01
1.060000e+09 -9.867398433e-01 1.243341669e-01 6.260244646e-03 3.493212830e-02 6.314299190e-03 3.487803596e-02 -9.902242336e-01 1.182967766e-01
1.070000e+09 -9.864876282e-01 1.255458356e-01 6.385934725e-03 3.529897532e-02 6.440650693e-03 3.524362933e-02 -9.900439732e-01 1.194478297e-01
1.080000e+09 -9.862323833e-01 1.267588142e-01 6.513312600e-03 3.566695638e-02 6.568680482e-03 3.561036849e-02 -9.898616747e-01 1.206002166e-01
1.090000e+09 -9.859740833e-01 1.279731078e-01 6.642394577e-03 3.603608189e-02 6.698406453e-03 3.597826431e-02 -9.896773166e-01 1.217539485e-01
1.100000e+09 -9.857127029e-01 1.291887216e-01 6.773197094e-03 3.640636231e-02 6.829846636e-03 3.634732763e-02 -9.894908777e-01 1.229090360e-01
1.110000e+09 -9.854482170e-01 1.304056602e-01 6.905736726e-03 3.677780813e-02 6.963019199e-03 3.671756923e-02 -9.893023366e-01 1.240654895e-01
1.120000e+09 -9.851806004e-01 1.316239285e-01 7.040030192e-03 3.715042994e-02 7.097942451e-03 3.708899988e-02 -9.891116720e-01 1.252233190e-01
1.130000e+09 -9.849098280e-01 1.328435311e-01 7.176094360e-03 3.752423838e-02 7.234634841e-03 3.746163036e-02 -9.889188625e-01 1.263825343e-01
1.140000e+09 -9.846358749e-01 1.340644723e-01 7.313946255e-03 3.789924417e-02 7.373114968e-03 3.783547140e-02 -9.887238868e-01 1.275431451e-01
1.150000e+09 -9.843587159e-01 1.352867569e-01 7.453603066e-03 3.827545809e-02 7.513401579e-03 3.821053378e-02 -9.885267237e-01 1.287051605e-01
1.160000e+09 -9.840783260e-01 1.365103892e-01 7.595082150e-03 3.865289105e-02 7.655513577e-03 3.858682827e-02 -9.883273518e-01 1.298685898e-01
1.170000e+09 -9.837946802e-01 1.377353737e-01 7.738401043e-03 3.903155402e-02 7.799470025e-03 3.896436566e-02 -9.881257499e-01 1.310334420e-01
1.180000e+09 -9.835077534e-01 1.389617151e-01 7.883577469e-03 3.941145808e-02 7.945290152e-03 3.934315677e-02 -9.879218967e-01 1.321997260e-01
1.190000e+09 -9.832175205e-01 1.401894178e-01 8.030629341e-03 3.979261442e-02 8.092993355e-03 3.972321247e-02 -9.877157711e-01 1.333674505e-01
1.200000e+09 -9.829239566e-01 1.414184866e-01 8.179574776e-03 4.017503435e-02 8.242599210e-03 4.010454364e-02 -9.875073518e-01 1.345366242e-01
1.210000e+09 -9.826270363e-01 1.426489263e-01 8.330432100e-03 4.055872928e-02 8.394127473e-03 4.048716123e-02 -9.872966176e-01 1.357072558e-01
1.220000e+09 -9.823267344e-01 1.438807418e-01 8.483219857e-03 4.094371074e-02 8.547598089e-03 4.087107626e-02 -9.870835473e-01 1.368793537e-01
1.230000e+09 -9.820230257e-01 1.451139383e-01 8.637956817e-03 4.132999039e-02 8.703031199e-03 4.125629978e-02 -9.868681197e-01 1.380529266e-01
1.240000e+09 -9.817158847e-01 1.463485209e-01 8.794661987e-03 4.171758002e-02 8.860447146e-03 4.164284294e-02 -9.866503137e-01 1.392279831e-01
1.250000e+09 -9.814052859e-01 1.475844952e-01 8.953354617e-03 4.210649156e-02 9.019866482e-03 4.203071694e-02 -9.864301079e-01 1.404045318e-01
1.260000e+09 -9.810912037e-01 1.488218667e-01 9.114054212e-03 4.249673706e-02 9.181309976e-03 4.241993308e-02 -9.862074812e-01 1.415825813e-01
1.270000e+09 -9.807736122e-01 1.500606414e-01 9.276780540e-03 4.288832872e-02 9.344798620e-03 4.281050273e-02 -9.859824122e-01 1.427621403e-01
1.280000e+09 -9.804524855e-01 1.513008253e-01 9.441553639e-03 4.328127888e-02 9.510353639e-03 4.320243736e-02 -9.857548798e-01 1.439432177e-01
1.290000e+09 -9.801277974e-01 1.525424248e-01 9.608393832e-03 4.367560004e-02 9.677996500e-03 4.359574854e-02 -9.855248626e-01 1.451258222e-01
1.300000e+09 -9.797995215e-01 1.537854464e-01 9.777321733e-03 4.407130483e-02 9.847748916e-03 4.399044794e-02 -9.852923392e-01 1.463099630e-01
1.310000e+09 -9.794676314e-01 1.550298972e-01 9.948358257e-03 4.446840604e-02 1.001963286e-02 4.438654732e-02 -9.850572882e-01 1.474956492e-01
1.320000e+09 -9.791321002e-01 1.562757841e-01 1.012152463e-02 4.486691660e-02 1.019367057e-02 4.478405857e-02 -9.848196881e-01 1.486828900e-01
1.330000e+09 -9.787929008e-01 1.575231148e-01 1.029684241e-02 4.526684962e-02 1.036988455e-02 4.518299368e-02 -9.845795173e-01 1.498716949e-01
1.340000e+09 -9.784500059e-01 1.587718967e-01 1.047433346e-02 4.566821835e-02 1.054829760e-02 4.558336477e-02 -9.843367542e-01 1.510620736e-01
1.350000e+09 -9.781033879e-01 1.600221381e-01 1.065402003e-02 4.607103620e-02 1.072893282e-02 4.598518408e-02 -9.840913770e-01 1.522540358e-01
1.360000e+09 -9.777530189e-01 1.612738473e-01 1.083592467e-02 4.647531674e-02 1.091181359e-02 4.638846396e-02 -9.838433639e-01 1.534475915e-01
1.370000e+09 -9.773988705e-01 1.625270329e-01 1.102007034e-02 4.688107370e-02 1.109696363e-02 4.679321690e-02 -9.835926928e-01 1.546427510e-01
1.380000e+09 -9.770409141e-01 1.637817038e-01 1.120648035e-02 4.728832097e-02 1.128440694e-02 4.719945553e-02 -9.833393419e-01 1.558395246e-01
1.390000e+09 -9.766791208e-01 1.650378694e-01 1.139517840e-02 4.769707261e-02 1.147416791e-02 4.760719259e-02 -9.830832886e-01 1.570379231e-01
1.400000e+09 -9.763134612e-01 1.662955393e-01 1.158618859e-02 4.810734283e-02 1.166627123e-02 4.801644097e-02 -9.828245108e-01 1.582379573e-01
1.410000e+09 -9.759439054e-01 1.675547233e-01 1.177953542e-02 4.851914601e-02 1.186074195e-02 4.842721371e-02 -9.825629858e-01 1.594396384e-01
1.420000e+09 -9.755704233e-01 1.688154318e-01 1.197524382e-02 4.893249668e-02 1.205760549e-02 4.883952397e-02 -9.822986910e-01 1.606429778e-01
1.430000e+09 -9.751929842e-01 1.700776753e-01 1.217333913e-02 4.934740955e-02 1.225688766e-02 4.925338506e-02 -9.820316034e-01 1.618479872e-01
1.440000e+09 -9.748115570e-01 1.713414647e-01 1.237384716e-02 4.976389948e-02 1.245861463e-02 4.966881043e-02 -9.817616999e-01 1.630546784e-01
1.450000e+09 -9.744261099e-01 1.726068112e-01 1.257679414e-02 5.018198148e-02 1.266281297e-02 5.008581369e-02 -9.814889571e-01 1.642630638e-01
1.460000e+09 -9.740366109e-01 1.738737263e-01 1.278220680e-02 5.060167074e-02 1.286950968e-02 5.050440857e-02 -9.812133517e-01 1.654731558e-01
1.470000e+09 -9.736430274e-01 1.751422219e-01 1.299011231e-02 5.102298259e-02 1.307873215e-02 5.092460897e-02 -9.809348596e-01 1.666849672e-01
1.480000e+09 -9.732453260e-01 1.764123100e-01 1.320053835e-02 5.144593251e-02 1.329050822e-02 5.134642894e-02 -9.806534570e-01 1.678985111e-01
1.490000e+09 -9.728434731e-01 1.776840032e-01 1.341351309e-02 5.187053616e-02 1.350486617e-02 5.176988265e-02 -9.803691195e-01 1.691138008e-01
1.500000e+09 -9.724374342e-01 1.789573141e-01 1.362906523e-02 5.229680932e-02 1.372183472e-02 5.219498444e-02 -9.800818225e-01 1.703308500e-01
1.510000e+09 -9.720271743e-01 1.802322558e-01 1.384722397e-02 5.272476796e-02 1.394144309e-02 5.262174881e-02 -9.797915411e-01 1.715496727e-01
1.520000e+09 -9.716126580e-01 1.815088416e-01 1.406801905e-02 5.315442814e-02 1.416372094e-02 5.305019037e-02 -9.794982501e-01 1.727702832e-01
1.530000e+09 -9.711938488e-01 1.827870849e-01 1.429148077e-02 5.358580613e-02 1.438869845e-02 5.348032392e-02 -9.792019240e-01 1.739926961e-01
1.540000e+09 -9.707707099e-01 1.840669998e-01 1.451763999e-02 5.401891828e-02 1.461640629e-02 5.391216438e-02 -9.789025370e-01 1.752169262e-01
1.550000e+09 -9.703432038e-01 1.853486002e-01 1.474652812e-02 5.445378113e-02 1.484687566e-02 5.434572683e-02 -9.786000627e-01 1.764429887e-01
1.560000e+09 -9.699112920e-01 1.866319004e-01 1.497817719e-02 5.489041131e-02 1.508013827e-02 5.478102648e-02 -9.782944747e-01 1.776708992e-01
1.570000e+09 -9.694749356e-01 1.879169152e-01 1.521261980e-02 5.532882562e-02 1.531622639e-02 5.521807870e-02 -9.779857459e-01 1.789006735e-01
1.580000e+09 -9.690340947e-01 1.892036591e-01 1.544988919e-02 5.576904097e-02 1.555517285e-02 5.565689900e-02 -9.776738490e-01 1.801323277e-01
1.590000e+09 -9.685887289e-01 1.904921473e-01 1.569001919e-02 5.621107438e-02 1.579701104e-02 5.609750302e-02 -9.773587562e-01 1.813658782e-01
1.600000e+09 -9.681387967e-01 1.917823948e-01 1.593304429e-02 5.665494302e-02 1.604177493e-02 5.653990654e-02 -9.770404391e-01 1.826013419e-01
1.610000e+09 -9.676842562e-01 1.930744172e-01 1.617899963e-02 5.710066415e-02 1.628949911e-02 5.698412548e-02 -9.767188692e-01 1.838387357e-01
1.620000e+09 -9.672250642e-01 1.943682299e-01 1.642792102e-02 5.754825515e-02 1.654021876e-02 5.743017590e-02 -9.763940173e-01 1.850780770e-01
1.630000e+09 -9.667611771e-01 1.956638486e-01 1.667984491e-02 5.799773351e-02 1.679396970e-02 5.787807398e-02 -9.760658537e-01 1.863193834e-01
1.640000e+09 -9.662925502e-01 1.969612892e-01 1.693480850e-02 5.844911680e-02 1.705078839e-02 5.832783603e-02 -9.757343484e-01 1.875626730e-01
1.650000e+09 -9.658191379e-01 1.982605677e-01 1.719284964e-02 5.890242271e-02 1.731071194e-02 5.877947848e-02 -9.753994705e-01 1.888079639e-01
1.660000e+09 -9.653408938e-01 1.995617001e-01 1.745400694e-02 5.935766900e-02 1.757377815e-02 5.923301790e-02 -9.750611890e-01 1.900552747e-01
1.670000e+09 -9.648577706e-01 2.008647026e-01 1.771831972e-02 5.981487352e-02 1.784002548e-02 5.968847095e-02 -9.747194721e-01 1.913046242e-01
1.680000e+09 -9.643697201e-01 2.021695914e-01 1.798582805e-02 6.027405420e-02 1.810949311e-02 6.014585441e-02 -9.743742875e-01 1.925560316e-01
1.690000e+09 -9.638766929e-01 2.034763829e-01 1.825657277e-02 6.073522903e-02 1.838222093e-02 6.060518518e-02 -9.740256023e-01 1.938095160e-01
1.700000e+09 -9.633786388e-01 2.047850934e-01 1.853059548e-02 6.119841606e-02 1.865824959e-02 6.106648024e-02 -9.736733828e-01 1.950650973e-01
1.710000e+09 -9.628755068e-01 2.060957393e-01 1.880793859e-02 6.166363342e-02 1.893762045e-02 6.152975670e-02 -9.733175951e-01 1.963227954e-01
1.720000e+09 -9.623672445e-01 2.074083370e-01 1.908864530e-02 6.213089926e-02 1.922037566e-02 6.199503172e-02 -9.729582042e-01 1.975826302e-01
1.730000e+09 -9.618537987e-01 2.087229029e-01 1.937275964e-02 6.260023179e-02 1.950655816e-02 6.246232259e-02 -9.725951748e-01 1.988446224e-01
1.740000e+09 -9.613351152e-01 2.100394532e-01 1.966032646e-02 6.307164923e-02 1.979621168e-02 6.293164664e-02 -9.722284707e-01 2.001087925e-01
1.750000e+09 -9.608111386e-01 2.113580043e-01 1.995139148e-02 6.354516986e-02 2.008938076e-02 6.340302131e-02 -9.718580550e-01 2.013751614e-01
1.760000e+09 -9.602818126e-01 2.126785723e-01 2.024600126e-02 6.402081195e-02 2.038611080e-02 6.387646407e-02 -9.714838902e-01 2.026437502e-01
1.770000e+09 -9.597470794e-01 2.140011734e-01 2.054420326e-02 6.449859378e-02 2.068644802e-02 6.435199248e-02 -9.711059379e-01 2.039145803e-01
1.780000e+09 -9.592068806e-01 2.153258236e-01 2.084604584e-02 6.497853363e-02 2.099043953e-02 6.482962414e-02 -9.707241591e-01 2.051876731e-01
1.790000e+09 -9.586611564e-01 2.166525386e-01 2.115157825e-02 6.546064977e-02 2.129813334e-02 6.530937669e-02 -9.703385139e-01 2.064630503e-01
1.800000e+09 -9.581098457e-01 2.179813343e-01 2.146085068e-02 6.594496044e-02 2.160957835e-02 6.579126781e-02 -9.699489617e-01 2.077407340e-01
1.810000e+09 -9.575528866e-01 2.193122259e-01 2.177391427e-02 6.643148388e-02 2.192482438e-02 6.627531521e-02 -9.695554609e-01 2.090207461e-01
1.820000e+09 -9.569902156e-01 2.206452290e-01 2.209082111e-02 6.692023824e-02 2.224392222e-02 6.676153661e-02 -9.691579693e-01 2.103031089e-01
1.830000e+09 -9.564217684e-01 2.219803584e-01 2.241162427e-02 6.741124165e-02 2.256692360e-02 6.724994974e-02 -9.687564435e-01 2.115878448e-01
1.840000e+09 -9.558474791e-01 2.233176290e-01 2.273637781e-02 6.790451217e-02 2.289388125e-02 6.774057232e-02 -9.683508396e-01 2.128749763e-01
1.850000e+09 -9.552672808e-01 2.246570552e-01 2.306513681e-02 6.840006778e-02 2.322484890e-02 6.823342208e-02 -9.679411125e-01 2.141645261e-01
1.860000e+09 -9.546811052e-01 2.259986514e-01 2.339795736e-02 6.889792637e-02 2.355988129e-02 6.872851670e-02 -9.675272162e-01 2.154565169e-01
1.870000e+09 -9.540888829e-01 2.273424313e-01 2.373489660e-02 6.939810572e-02 2.389903422e-02 6.922587384e-02 -9.671091039e-01 2.167509716e-01
1.880000e+09 -9.534905431e-01 2.286884084e-01 2.407601274e-02 6.990062353e-02 2.424236455e-02 6.972551110e-02 -9.666867277e-01 2.180479132e-01
1.890000e+09 -9.528860136e-01 2.300365958e-01 2.442136505e-02 7.040549734e-02 2.458993023e-02 7.022744603e-02 -9.662600388e-01 2.193473647e-01
1.900000e+09 -9.522752210e-01 2.313870062e-01 2.477101391e-02 7.091274456e-02 2.494179031e-02 7.073169611e-02 -9.658289871e-01 2.206493491e-01
1.910000e+09 -9.516580904e-01 2.327396519e-01 2.512502080e-02 7.142238245e-02 2.529800496e-02 7.123827871e-02 -9.653935219e-01 2.219538896e-01
1.920000e+09 -9.510345458e-01 2.340945446e-01 2.548344836e-02 7.193442810e-02 2.565863551e-02 7.174721111e-02 -9.649535910e-01 2.232610092e-01
1.930000e+09 -9.504045097e-01 2.354516956e-01 2.584636033e-02 7.244889842e-02 2.602374447e-02 7.225851049e-02 -9.645091413e-01 2.245707312e-01
1.940000e+09 -9.497679029e-01 2.368111156e-01 2.621382166e-02 7.296581010e-02 2.639339554e-02 7.277219388e-02 -9.640601187e-01 2.258830785e-01
1.950000e+09 -9.491246454e-01 2.381728148e-01 2.658589847e-02 7.348517964e-02 2.676765360e-02 7.328827815e-02 -9.636064677e-01 2.271980743e-01
1.960000e+09 -9.484746552e-01 2.395368027e-01 2.696265808e-02 7.400702331e-02 2.714658483e-02 7.380678003e-02 -9.631481318e-01 2.285157416e-01
1.970000e+09 -9.478178491e-01 2.409030884e-01 2.734416904e-02 7.453135710e-02 2.753025663e-02 7.432771604e-02 -9.626850533e-01 2.298361033e-01
1.980000e+09 -9.471541426e-01 2.422716801e-01 2.773050114e-02 7.505819677e-02 2.791873769e-02 7.485110254e-02 -9.622171732e-01 2.311591822e-01
1.990000e+09 -9.464834493e-01 2.436425855e-01 2.812172542e-02 7.558755778e-02 2.831209802e-02 7.537695562e-02 -9.617444313e-01 2.324850012e-01
2.000000e+09 -9.458056817e-01 2.450158115e-01 2.851791420e-02 7.611945529e-02 2.871040895e-02 7.590529115e-02 -9.612667662e-01 2.338135827e-01
2.010000e+09 -9.451207506e-01 2.463913642e-01 2.891914113e-02 7.665390413e-02 2.911374318e-02 7.643612476e-02 -9.607841152e-01 2.351449493e-01
2.020000e+09 -9.444285654e-01 2.477692490e-01 2.932548114e-02 7.719091881e-02 2.952217478e-02 7.696947177e-02 -9.602964142e-01 2.364791231e-01
2.030000e+09 -9.437290337e-01 2.491494705e-01 2.973701052e-02 7.773051347e-02 2.993577924e-02 7.750534720e-02 -9.598035977e-01 2.378161261e-01
2.040000e+09 -9.430220619e-01 2.505320324e-01 3.015380691e-02 7.827270186e-02 3.035463345e-02 7.804376576e-02 -9.593055990e-01 2.391559802e-01
2.050000e+09 -9.423075545e-01 2.519169375e-01 3.057594933e-02 7.881749734e-02 3.077881578e-02 7.858474179e-02 -9.588023500e-01 2.404987069e-01
2.060000e+09 -9.415854147e-01 2.533041878e-01 3.100351819e-02 7.936491285e-02 3.120840607e-02 7.912828927e-02 -9.582937811e-01 2.418443274e-01
2.070000e+09 -9.408555438e-01 2.546937843e-01 3.143659534e-02 7.991496087e-02 3.164348567e-02 7.967442177e-02 -9.577798212e-01 2.431928626e-01
2.080000e+09 -9.401178417e-01 2.560857268e-01 3.187526404e-02 8.046765342e-02 3.208413745e-02 8.022315244e-02 -9.572603978e-01 2.445443331e-01
2.090000e+09 -9.393722066e-01 2.574800145e-01 3.231960905e-02 8.102300203e-02 3.253044585e-02 8.077449396e-02 -9.567354370e-01 2.458987591e-01
2.100000e+09 -9.386185351e-01 2.588766452e-01 3.276971656e-02 8.158101771e-02 3.298249688e-02 8.132845856e-02 -9.562048633e-01 2.472561604e-01
2.110000e+09 -9.378567220e-01 2.602756157e-01 3.322567431e-02 8.214171093e-02 3.344037817e-02 8.188505792e-02 -9.556685995e-01 2.486165564e-01
2.120000e+09 -9.370866606e-01 2.616769218e-01 3.368757152e-02 8.270509160e-02 3.390417896e-02 8.244430321e-02 -9.551265670e-01 2.499799659e-01
2.130000e+09 -9.363082423e-01 2.630805579e-01 3.415549900e-02 8.327116902e-02 3.437399018e-02 8.300620500e-02 -9.545786857e-01 2.513464074e-01
2.140000e+09 -9.355213571e-01 2.644865174e-01 3.462954909e-02 8.383995189e-02 3.484990442e-02 8.357077328e-02 -9.540248736e-01 2.527158987e-01
2.150000e+09 -9.347258929e-01 2.658947923e-01 3.510981572e-02 8.441144826e-02 3.533201600e-02 8.413801738e-02 -9.534650472e-01 2.540884571e-01
2.160000e+09 -9.339217362e-01 2.673053735e-01 3.559639446e-02 8.498566549e-02 3.582042097e-02 8.470794596e-02 -9.528991214e-01 2.554640993e-01
2.170000e+09 -9.331087716e-01 2.687182504e-01 3.608938247e-02 8.556261025e-02 3.631521715e-02 8.528056699e-02 -9.523270092e-01 2.568428414e-01
2.180000e+09 -9.322868818e-01 2.701334113e-01 3.658887860e-02 8.614228848e-02 3.681650415e-02 8.585588767e-02 -9.517486221e-01 2.582246987e-01
2.190000e+09 -9.314559480e-01 2.715508427e-01 3.709498335e-02 8.672470535e-02 3.732438338e-02 8.643391443e-02 -9.511638696e-01 2.596096859e-01
2.200000e+09 -9.306158494e-01 2.729705301e-01 3.760779893e-02 8.730986524e-02 3.783895814e-02 8.701465288e-02 -9.505726597e-01 2.609978169e-01
2.210000e+09 -9.297664636e-01 2.743924572e-01 3.812742928e-02 8.789777171e-02 3.836033355e-02 8.759810776e-02 -9.499748984e-01 2.623891049e-01
2.220000e+09 -9.289076661e-01 2.758166064e-01 3.865398007e-02 8.848842744e-02 3.888861665e-02 8.818428289e-02 -9.493704898e-01 2.637835621e-01
2.230000e+09 -9.280393308e-01 2.772429585e-01 3.918755875e-02 8.908183424e-02 3.942391642e-02 8.877318118e-02 -9.487593365e-01 2.651812000e-01
2.240000e+09 -9.271613296e-01 2.786714927e-01 3.972827454e-02 8.967799299e-02 3.996634376e-02 8.936480452e-02 -9.481413390e-01 2.665820289e-01
2.250000e+09 -9.262735327e-01 2.801021864e-01 4.027623850e-02 9.027690360e-02 4.051601156e-02 8.995915378e-02 -9.475163958e-01 2.679860586e-01
2.260000e+09 -9.253758083e-01 2.815350156e-01 4.083156351e-02 9.087856501e-02 4.107303471e-02 9.055622872e-02 -9.468844036e-01 2.693932975e-01
2.270000e+09 -9.244680227e-01 2.829699544e-01 4.139436433e-02 9.148297510e-02 4.163753013e-02 9.115602801e-02 -9.462452574e-01 2.708037531e-01
2.280000e+09 -9.235500405e-01 2.844069752e-01 4.196475759e-02 9.209013069e-02 4.220961679e-02 9.175854911e-02 -9.455988498e-01 2.722174317e-01
2.290000e+09 -9.226217240e-01 2.858460488e-01 4.254286184e-02 9.270002750e-02 4.278941572e-02 9.236378825e-02 -9.449450717e-01 2.736343387e-01
2.300000e+09 -9.216829340e-01 2.872871438e-01 4.312879757e-02 9.331266010e-02 4.337705009e-02 9.297174040e-02 -9.442838120e-01 2.750544781e-01
2.310000e+09 -9.207335291e-01 2.887302271e-01 4.372268721e-02 9.392802187e-02 4.397264515e-02 9.358239918e-02 -9.436149575e-01 2.764778527e-01
2.320000e+09 -9.197733659e-01 2.901752638e-01 4.432465519e-02 9.454610498e-02 4.457632834e-02 9.419575681e-02 -9.429383931e-01 2.779044640e-01
2.330000e+09 -9.188022993e-01 2.916222169e-01 4.493482797e-02 9.516690032e-02 4.518822925e-02 9.481180409e-02 -9.422540015e-01 2.793343123e-01
2.340000e+09 -9.178201819e-01 2.930710475e-01 4.555333401e-02 9.579039746e-02 4.580847968e-02 9.543053030e-02 -9.415616633e-01 2.807673963e-01
2.350000e+09 -9.168268645e-01 2.945217144e-01 4.618030386e-02 9.641658464e-02 4.643721363e-02 9.605192316e-02 -9.408612573e-01 2.822037133e-01
2.360000e+09 -9.158221959e-01 2.959741747e-01 4.681587015e-02 9.704544869e-02 4.707456736e-02 9.667596877e-02 -9.401526600e-01 2.836432594e-01
2.370000e+09 -9.148060226e-01 2.974283831e-01 4.746016763e-02 9.767697500e-02 4.772067938e-02 9.730265155e-02 -9.394357458e-01 2.850860287e-01
2.380000e+09 -9.137781893e-01 2.988842921e-01 4.811333320e-02 9.831114748e-02 4.837569050e-02 9.793195418e-02 -9.387103870e-01 2.865320140e-01
2.390000e+09 -9.127385386e-01 3.003418524e-01 4.877550592e-02 9.894794849e-02 4.903974382e-02 9.856385753e-02 -9.379764539e-01 2.879812064e-01
2.400000e+09 -9.116869109e-01 3.018010118e-01 4.944682705e-02 9.958735883e-02 4.971298476e-02 9.919834057e-02 -9.372338145e-01 2.894335953e-01
2.410000e+09 -9.106231447e-01 3.032617164e-01 5.012744009e-02 1.002293576e-01 5.039556110e-02 9.983538038e-02 -9.364823347e-01 2.908891682e-01
2.420000e+09 -9.095470762e-01 3.047239097e-01 5.081749079e-02 1.008739224e-01 5.108762295e-02 1.004749520e-01 -9.357218784e-01 2.923479110e-01
2.430000e+09 -9.084585395e-01 3.061875327e-01 5.151712717e-02 1.015210288e-01 5.178932282e-02 1.011170284e-01 -9.349523071e-01 2.938098075e-01
2.440000e+09 -9.073573666e-01 3.076525242e-01 5.222649960e-02 1.021706509e-01 5.250081560e-02 1.017615804e-01 -9.341734804e-01 2.952748397e-01
2.450000e+09 -9.062433873e-01 3.091188204e-01 5.294576077e-02 1.028227607e-01 5.322225860e-02 1.024085765e-01 -9.333852556e-01 2.967429877e-01
2.460000e+09 -9.051164290e-01 3.105863550e-01 5.367506577e-02 1.034773285e-01 5.395381155e-02 1.030579832e-01 -9.325874880e-01 2.982142294e-01
2.470000e+09 -9.039763173e-01 3.120550592e-01 5.441457207e-02 1.041343226e-01 5.469563661e-02 1.037097644e-01 -9.317800305e-01 2.996885407e-01
2.480000e+09 -9.028228751e-01 3.135248616e-01 5.516443961e-02 1.047937092e-01 5.544789838e-02 1.043638815e-01 -9.309627341e-01 3.011658952e-01
2.490000e+09 -9.016559233e-01 3.149956880e-01 5.592483080e-02 1.054554525e-01 5.621076394e-02 1.050202936e-01 -9.301354476e-01 3.026462646e-01
2.500000e+09 -9.004752804e-01 3.164674617e-01 5.669591055e-02 1.061195147e-01 5.698440282e-02 1.056789571e-01 -9.292980176e-01 3.041296180e-01
2.510000e+09 -8.992807626e-01 3.179401031e-01 5.747784633e-02 1.067858555e-01 5.776898705e-02 1.063398257e-01 -9.284502887e-01 3.056159224e-01
2.520000e+09 -8.980721838e-01 3.194135299e-01 5.827080816e-02 1.074544327e-01 5.856469113e-02 1.070028504e-01 -9.275921032e-01 3.071051423e-01
2.530000e+09 -8.968493554e-01 3.208876569e-01 5.907496873e-02 1.081252016e-01 5.937169206e-02 1.076679793e-01 -9.267233015e-01 3.085972399e-01
2.540000e+09 -8.956120864e-01 3.223623961e-01 5.989050332e-02 1.087981152e-01 6.019016933e-02 1.083351578e-01 -9.258437219e-01 3.100921749e-01
2.550000e+09 -8.943601835e-01 3.238376564e-01 6.071758996e-02 1.094731240e-01 6.102030496e-02 1.090043281e-01 -9.249532007e-01 3.115899044e-01
2.560000e+09 -8.930934506e-01 3.253133438e-01 6.155640938e-02 1.101501760e-01 6.186228346e-02 1.096754294e-01 -9.240515718e-01 3.130903829e-01
2.570000e+09 -8.918116894e-01 3.267893612e-01 6.240714509e-02 1.108292167e-01 6.271629184e-02 1.103483978e-01 -9.231386677e-01 3.145935624e-01
2.580000e+09 -8.905146988e-01 3.282656085e-01 6.326998341e-02 1.115101887e-01 6.358251965e-02 1.110231661e-01 -9.222143183e-01 3.160993921e-01
2.590000e+09 -8.892022752e-01 3.297419822e-01 6.414511354e-02 1.121930322e-01 6.446115893e-02 1.116996639e-01 -9.212783519e-01 3.176078186e-01
2.600000e+09 -8.878742124e-01 3.312183759e-01 6.503272756e-02 1.128776844e-01 6.535240424e-02 1.123778172e-01 -9.203305948e-01 3.191187856e-01
2.610000e+09 -8.865303013e-01 3.326946795e-01 6.593302051e-02 1.135640796e-01 6.625645265e-02 1.130575487e-01 -9.193708713e-01 3.206322341e-01
2.620000e+09 -8.851703303e-01 3.341707798e-01 6.684619041e-02 1.142521493e-01 6.717350374e-02 1.137387775e-01 -9.183990040e-01 3.221481021e-01
2.630000e+09 -8.837940847e-01 3.356465602e-01 6.777243835e-02 1.149418217e-01 6.810375958e-02 1.144214190e-01 -9.174148134e-01 3.236663250e-01
2.640000e+09 -8.824013473e-01 3.371219003e-01 6.871196849e-02 1.156330221e-01 6.904742474e-02 1.151053850e-01 -9.164181185e-01 3.251868350e-01
2.650000e+09 -8.809918976e-01 3.385966764e-01 6.966498815e-02 1.163256724e-01 7.000470631e-02 1.157905834e-01 -9.154087362e-01 3.267095613e-01
2.660000e+09 -8.795655125e-01 3.400707609e-01 7.063170783e-02 1.170196912e-01 7.097581382e-02 1.164769182e-01 -9.143864818e-01 3.282344304e-01
2.670000e+09 -8.781219656e-01 3.415440227e-01 7.161234130e-02 1.177149938e-01 7.196095933e-02 1.171642894e-01 -9.133511691e-01 3.297613654e-01
2.680000e+09 -8.766610275e-01 3.430163266e-01 7.260710564e-02 1.184114919e-01 7.296035733e-02 1.178525932e-01 -9.123026099e-01 3.312902868e-01
2.690000e+09 -8.751824656e-01 3.444875335e-01 7.361622128e-02 1.191090936e-01 7.397422481e-02 1.185417214e-01 -9.112406145e-01 3.328211116e-01
2.700000e+09 -8.736860442e-01 3.459575003e-01 7.463991210e-02 1.198077032e-01 7.500278118e-02 1.192315616e-01 -9.101649918e-01 3.343537539e-01
2.710000e+09 -8.721715241e-01 3.474260796e-01 7.567840543e-02 1.205072212e-01 7.604624835e-02 1.199219973e-01 -9.090755489e-01 3.358881246e-01
2.720000e+09 -8.706386627e-01 3.488931199e-01 7.673193218e-02 1.212075442e-01 7.710485063e-02 1.206129075e-01 -9.079720915e-01 3.374241316e-01
2.730000e+09 -8.690872141e-01 3.503584652e-01 7.780072688e-02 1.219085646e-01 7.817881478e-02 1.213041668e-01 -9.068544239e-01 3.389616796e-01
2.740000e+09 -8.675169287e-01 3.518219547e-01 7.888502770e-02 1.226101707e-01 7.926837000e-02 1.219956451e-01 -9.057223487e-01 3.405006701e-01
2.750000e+09 -8.659275533e-01 3.532834233e-01 7.998507659e-02 1.233122464e-01 8.037374790e-02 1.226872081e-01 -9.045756675e-01 3.420410014e-01
2.760000e+09 -8.643188311e-01 3.547427008e-01 8.110111932e-02 1.240146712e-01 8.149518252e-02 1.233787165e-01 -9.034141801e-01 3.435825688e-01
2.770000e+09 -8.626905013e-01 3.561996119e-01 8.223340551e-02 1.247173198e-01 8.263291031e-02 1.240700263e-01 -9.022376854e-01 3.451252643e-01
2.780000e+09 -8.610422993e-01 3.576539762e-01 8.338218877e-02 1.254200623e-01 8.378717015e-02 1.247609888e-01 -9.010459806e-01 3.466689768e-01
2.790000e+09 -8.593739563e-01 3.591056079e-01 8.454772674e-02 1.261227638e-01 8.495820333e-02 1.254514504e-01 -8.998388618e-01 3.482135920e-01
2.800000e+09 -8.576851998e-01 3.605543155e-01 8.573028113e-02 1.268252842e-01 8.614625355e-02 1.261412525e-01 -8.986161240e-01 3.497589926e-01
2.810000e+09 -8.559757528e-01 3.619999019e-01 8.693011787e-02 1.275274782e-01 8.735156696e-02 1.268302314e-01 -8.973775605e-01 3.513050580e-01
2.820000e+09 -8.542453339e-01 3.634421636e-01 8.814750711e-02 1.282291951e-01 8.857439213e-02 1.275182183e-01 -8.961229639e-01 3.528516645e-01
2.830000e+09 -8.524936577e-01 3.648808910e-01 8.938272334e-02 1.289302784e-01 8.981498010e-02 1.282050395e-01 -8.948521251e-01 3.543986855e-01
2.840000e+09 -8.507204340e-01 3.663158677e-01 9.063604545e-02 1.296305659e-01 9.107358434e-02 1.288905156e-01 -8.935648340e-01 3.559459912e-01
2.850000e+09 -8.489253680e-01 3.677468708e-01 9.190775682e-02 1.303298890e-01 9.235046086e-02 1.295744623e-01 -8.922608792e-01 3.574934486e-01
2.860000e+09 -8.471081604e-01 3.691736697e-01 9.319814536e-02 1.310280732e-01 9.364586815e-02 1.302566896e-01 -8.909400481e-01 3.590409218e-01
2.870000e+09 -8.452685069e-01 3.705960267e-01 9.450750362e-02 1.317249370e-01 9.496006727e-02 1.309370023e-01 -8.896021265e-01 3.605882719e-01
2.880000e+09 -8.434060986e-01 3.720136960e-01 9.583612882e-02 1.324202926e-01 9.629332185e-02 1.316151995e-01 -8.882468992e-01 3.621353571e-01
2.890000e+09 -8.415206214e-01 3.734264234e-01 9.718432299e-02 1.331139446e-01 9.764589816e-02 1.322910746e-01 -8.868741494e-01 3.636820323e-01
2.900000e+09 -8.396117561e-01 3.748339464e-01 9.855239293e-02 1.338056906e-01 9.901806515e-02 1.329644155e-01 -8.854836589e-01 3.652281497e-01
2.910000e+09 -8.376791786e-01 3.762359932e-01 9.994065038e-02 1.344953204e-01 1.004100945e-01 1.336350041e-01 -8.840752079e-01 3.667735585e-01
2.920000e+09 -8.357225594e-01 3.776322823e-01 1.013494120e-01 1.351826160e-01 1.018222608e-01 1.343026166e-01 -8.826485750e-01 3.683181050e-01
2.930000e+09 -8.337415639e-01 3.790225225e-01 1.027789995e-01 1.358673509e-01 1.032548413e-01 1.349670231e-01 -8.812035370e-01 3.698616323e-01
2.940000e+09 -8.317358520e-01 3.804064117e-01 1.042297395e-01 1.365492900e-01 1.047081164e-01 1.356279876e-01 -8.797398688e-01 3.714039810e-01
2.950000e+09 -8.297050784e-01 3.817836368e-01 1.057019639e-01 1.372281892e-01 1.061823696e-01 1.362852680e-01 -8.782573435e-01 3.729449884e-01
2.960000e+09 -8.276488923e-01 3.831538732e-01 1.071960095e-01 1.379037951e-01 1.076778875e-01 1.369386159e-01 -8.767557316e-01 3.744844890e-01
2.970000e+09 -8.255669375e-01 3.845167838e-01 1.087122186e-01 1.385758445e-01 1.091949598e-01 1.375877761e-01 -8.752348016e-01 3.760223141e-01
2.980000e+09 -8.234588525e-01 3.858720184e-01 1.102509381e-01 1.392440637e-01 1.107338799e-01 1.382324873e-01 -8.736943191e-01 3.775582923e-01
2.990000e+09 -8.213242704e-01 3.872192134e-01 1.118125205e-01 1.399081686e-01 1.122949445e-01 1.388724811e-01 -8.721340472e-01 3.790922487e-01
3.000000e+09 -8.191628188e-01 3.885579908e-01 1.133973233e-01 1.405678638e-01 1.138784543e-01 1.395074822e-01 -8.705537456e-01 3.806240056e-01
