! rfsim (KiCad + openEMS)
# HZ S RI R 50
5.000000e+08 -5.802675268e+01 3.363958689e+02 2.650674360e+00 -3.624922686e-01 1.264758378e+00 -1.306280501e-01 -7.053362651e+00 5.408629111e+01
5.100000e+08 -5.586867281e+01 3.304147792e+02 2.648388499e+00 -3.577234213e-01 1.264364606e+00 -1.293731310e-01 -6.861726522e+00 5.311364882e+01
5.200000e+08 -5.381342774e+01 3.246192880e+02 2.646302805e+00 -3.531194169e-01 1.263971442e+00 -1.281731946e-01 -6.677384053e+00 5.217125442e+01
5.300000e+08 -5.185626908e+01 3.190007906e+02 2.644405055e+00 -3.486730184e-01 1.263580448e+00 -1.270304190e-01 -6.500210624e+00 5.125772262e+01
5.400000e+08 -4.999265753e+01 3.135513208e+02 2.642683495e+00 -3.443776132e-01 1.263192998e+00 -1.259465633e-01 -6.330064876e+00 5.037177107e+01
5.500000e+08 -4.821824987e+01 3.082634830e+02 2.641126833e+00 -3.402271358e-01 1.262810298e+00 -1.249229982e-01 -6.166791321e+00 4.951220921e+01
5.600000e+08 -4.652888790e+01 3.031303927e+02 2.639724245e+00 -3.362160026e-01 1.262433392e+00 -1.239607353e-01 -6.010222742e+00 4.867792838e+01
5.700000e+08 -4.492058903e+01 2.981456235e+02 2.638465365e+00 -3.323390536e-01 1.262063179e+00 -1.230604563e-01 -5.860182382e+00 4.786789331e+01
5.800000e+08 -4.338953806e+01 2.933031621e+02 2.637340286e+00 -3.285915035e-01 1.261700427e+00 -1.222225411e-01 -5.716485941e+00 4.708113455e+01
5.900000e+08 -4.193208002e+01 2.885973672e+02 2.636339555e+00 -3.249688981e-01 1.261345781e+00 -1.214470942e-01 -5.578943375e+00 4.631674196e+01
6.000000e+08 -4.054471373e+01 2.840229344e+02 2.635454161e+00 -3.214670774e-01 1.260999774e+00 -1.207339708e-01 -5.447360515e+00 4.557385892e+01
6.100000e+08 -3.922408594e+01 2.795748648e+02 2.634675534e+00 -3.180821429e-01 1.260662841e+00 -1.200828008e-01 -5.321540522e+00 4.485167729e+01
6.200000e+08 -3.796698596e+01 2.752484375e+02 2.633995533e+00 -3.148104300e-01 1.260335326e+00 -1.194930123e-01 -5.201285166e+00 4.414943297e+01
6.300000e+08 -3.677034063e+01 2.710391855e+02 2.633406437e+00 -3.116484832e-01 1.260017488e+00 -1.189638531e-01 -5.086395971e+00 4.346640203e+01
6.400000e+08 -3.563120957e+01 2.669428739e+02 2.632900935e+00 -3.085930351e-01 1.259709514e+00 -1.184944115e-01 -4.976675208e+00 4.280189724e+01
6.500000e+08 -3.454678066e+01 2.629554811e+02 2.632472116e+00 -3.056409880e-01 1.259411525e+00 -1.180836355e-01 -4.871926765e+00 4.215526506e+01
6.600000e+08 -3.351436557e+01 2.590731820e+02 2.632113456e+00 -3.027893977e-01 1.259123579e+00 -1.177303507e-01 -4.771956896e+00 4.152588300e+01
6.700000e+08 -3.253139559e+01 2.552923328e+02 2.631818807e+00 -3.000354592e-01 1.258845683e+00 -1.174332772e-01 -4.676574866e+00 4.091315719e+01
6.800000e+08 -3.159541746e+01 2.516094579e+02 2.631582383e+00 -2.973764949e-01 1.258577793e+00 -1.171910450e-01 -4.585593489e+00 4.031652032e+01
6.900000e+08 -3.070408926e+01 2.480212378e+02 2.631398750e+00 -2.948099428e-01 1.258319823e+00 -1.170022084e-01 -4.498829585e+00 3.973542977e+01
7.000000e+08 -2.985517649e+01 2.445244987e+02 2.631262810e+00 -2.923333481e-01 1.258071651e+00 -1.168652593e-01 -4.416104352e+00 3.916936596e+01
7.100000e+08 -2.904654812e+01 2.411162027e+02 2.631169789e+00 -2.899443535e-01 1.257833116e+00 -1.167786392e-01 -4.337243666e+00 3.861783080e+01
7.200000e+08 -2.827617274e+01 2.377934392e+02 2.631115226e+00 -2.876406926e-01 1.257604031e+00 -1.167407508e-01 -4.262078314e+00 3.808034645e+01
7.300000e+08 -2.754211480e+01 2.345534173e+02 2.631094956e+00 -2.854201825e-01 1.257384178e+00 -1.167499676e-01 -4.190444178e+00 3.755645401e+01
7.400000e+08 -2.684253091e+01 2.313934586e+02 2.631105100e+00 -2.832807181e-01 1.257173320e+00 -1.168046437e-01 -4.122182355e+00 3.704571255e+01
7.500000e+08 -2.617566618e+01 2.283109910e+02 2.631142050e+00 -2.812202667e-01 1.256971196e+00 -1.169031218e-01 -4.057139245e+00 3.654769803e+01
7.600000e+08 -2.553985069e+01 2.253035428e+02 2.631202457e+00 -2.792368631e-01 1.256777528e+00 -1.170437412e-01 -3.995166589e+00 3.606200246e+01
7.700000e+08 -2.493349599e+01 2.223687373e+02 2.631283219e+00 -2.773286049e-01 1.256592023e+00 -1.172248442e-01 -3.936121481e+00 3.558823308e+01
7.800000e+08 -2.435509170e+01 2.195042879e+02 2.631381467e+00 -2.754936490e-01 1.256414372e+00 -1.174447826e-01 -3.879866346e+00 3.512601160e+01
7.900000e+08 -2.380320221e+01 2.167079939e+02 2.631494555e+00 -2.737302075e-01 1.256244257e+00 -1.177019230e-01 -3.826268895e+00 3.467497351e+01
8.000000e+08 -2.327646344e+01 2.139777360e+02 2.631620047e+00 -2.720365447e-01 1.256081350e+00 -1.179946516e-01 -3.775202056e+00 3.423476748e+01
8.100000e+08 -2.277357973e+01 2.113114726e+02 2.631755705e+00 -2.704109735e-01 1.255925315e+00 -1.183213785e-01 -3.726543886e+00 3.380505473e+01
8.200000e+08 -2.229332076e+01 2.087072364e+02 2.631899481e+00 -2.688518536e-01 1.255775808e+00 -1.186805415e-01 -3.680177475e+00 3.338550852e+01
8.300000e+08 -2.183451864e+01 2.061631308e+02 2.632049501e+00 -2.673575877e-01 1.255632483e+00 -1.190706095e-01 -3.635990831e+00 3.297581361e+01
8.400000e+08 -2.139606503e+01 2.036773270e+02 2.632204059e+00 -2.659266202e-01 1.255494987e+00 -1.194900848e-01 -3.593876754e+00 3.257566581e+01
8.500000e+08 -2.097690840e+01 2.012480609e+02 2.632361607e+00 -2.645574343e-01 1.255362966e+00 -1.199375061e-01 -3.553732707e+00 3.218477154e+01
8.600000e+08 -2.057605136e+01 1.988736305e+02 2.632520741e+00 -2.632485503e-01 1.255236066e+00 -1.204114501e-01 -3.515460678e+00 3.180284736e+01
8.700000e+08 -2.019254810e+01 1.965523934e+02 2.632680198e+00 -2.619985238e-01 1.255113929e+00 -1.209105333e-01 -3.478967041e+00 3.142961964e+01
8.800000e+08 -1.982550195e+01 1.942827642e+02 2.632838842e+00 -2.608059435e-01 1.254996201e+00 -1.214334134e-01 -3.444162408e+00 3.106482414e+01
8.900000e+08 -1.947406295e+01 1.920632123e+02 2.632995658e+00 -2.596694304e-01 1.254882528e+00 -1.219787903e-01 -3.410961485e+00 3.070820566e+01
9.000000e+08 -1.913742563e+01 1.898922597e+02 2.633149744e+00 -2.585876357e-01 1.254772557e+00 -1.225454066e-01 -3.379282923e+00 3.035951772e+01
9.100000e+08 -1.881482680e+01 1.877684790e+02 2.633300302e+00 -2.575592395e-01 1.254665940e+00 -1.231320490e-01 -3.349049175e+00 3.001852222e+01
9.200000e+08 -1.850554346e+01 1.856904913e+02 2.633446632e+00 -2.565829499e-01 1.254562331e+00 -1.237375475e-01 -3.320186349e+00 2.968498913e+01
9.300000e+08 -1.820889077e+01 1.836569645e+02 2.633588124e+00 -2.556575015e-01 1.254461388e+00 -1.243607766e-01 -3.292624061e+00 2.935869621e+01
9.400000e+08 -1.792422019e+01 1.816666112e+02 2.633724252e+00 -2.547816545e-01 1.254362775e+00 -1.250006543e-01 -3.266295301e+00 2.903942874e+01
9.500000e+08 -1.765091757e+01 1.797181876e+02 2.633854568e+00 -2.539541937e-01 1.254266161e+00 -1.256561430e-01 -3.241136288e+00 2.872697921e+01
9.600000e+08 -1.738840148e+01 1.778104912e+02 2.633978693e+00 -2.531739277e-01 1.254171220e+00 -1.263262480e-01 -3.217086337e+00 2.842114709e+01
9.700000e+08 -1.713612144e+01 1.759423597e+02 2.634096316e+00 -2.524396878e-01 1.254077632e+00 -1.270100182e-01 -3.194087726e+00 2.812173858e+01
9.800000e+08 -1.689355643e+01 1.741126694e+02 2.634207187e+00 -2.517503275e-01 1.253985085e+00 -1.277065444e-01 -3.172085571e+00 2.782856637e+01
9.900000e+08 -1.666021328e+01 1.723203337e+02 2.634311110e+00 -2.511047218e-01 1.253893274e+00 -1.284149597e-01 -3.151027696e+00 2.754144941e+01
1.000000e+09 -1.643562529e+01 1.705643018e+02 2.634407939e+00 -2.505017664e-01 1.253801899e+00 -1.291344382e-01 -3.130864518e+00 2.726021268e+01
1.010000e+09 -1.621935078e+01 1.688435573e+02 2.634497575e+00 -2.499403774e-01 1.253710670e+00 -1.298641940e-01 -3.111548925e+00 2.698468701e+01
1.020000e+09 -1.601097184e+01 1.671571172e+02 2.634579962e+00 -2.494194905e-01 1.253619305e+00 -1.306034811e-01 -3.093036170e+00 2.671470882e+01
1.030000e+09 -1.581009305e+01 1.655040304e+02 2.634655080e+00 -2.489380606e-01 1.253527528e+00 -1.313515915e-01 -3.075283757e+00 2.645011999e+01
1.040000e+09 -1.561634030e+01 1.638833768e+02 2.634722944e+00 -2.484950615e-01 1.253435074e+00 -1.321078550e-01 -3.058251338e+00 2.619076760e+01
1.050000e+09 -1.542935965e+01 1.622942659e+02 2.634783599e+00 -2.480894856e-01 1.253341686e+00 -1.328716379e-01 -3.041900616e+00 2.593650381e+01
1.060000e+09 -1.524881627e+01 1.607358361e+02 2.634837119e+00 -2.477203433e-01 1.253247114e+00 -1.336423419e-01 -3.026195246e+00 2.568718565e+01
1.070000e+09 -1.507439341e+01 1.592072533e+02 2.634883600e+00 -2.473866626e-01 1.253151118e+00 -1.344194032e-01 -3.011100743e+00 2.544267485e+01
1.080000e+09 -1.490579145e+01 1.577077102e+02 2.634923160e+00 -2.470874894e-01 1.253053469e+00 -1.352022914e-01 -2.996584394e+00 2.520283769e+01
1.090000e+09 -1.474272697e+01 1.562364252e+02 2.634955938e+00 -2.468218866e-01 1.252953944e+00 -1.359905081e-01 -2.982615175e+00 2.496754482e+01
1.100000e+09 -1.458493186e+01 1.547926416e+02 2.634982087e+00 -2.465889343e-01 1.252852331e+00 -1.367835862e-01 -2.969163666e+00 2.473667114e+01
1.110000e+09 -1.443215256e+01 1.533756266e+02 2.635001775e+00 -2.463877295e-01 1.252748428e+00 -1.375810889e-01 -2.956201979e+00 2.451009563e+01
1.120000e+09 -1.428414920e+01 1.519846705e+02 2.635015180e+00 -2.462173856e-01 1.252642040e+00 -1.383826079e-01 -2.943703680e+00 2.428770119e+01
1.130000e+09 -1.414069489e+01 1.506190861e+02 2.635022493e+00 -2.460770331e-01 1.252532984e+00 -1.391877631e-01 -2.931643720e+00 2.406937455e+01
1.140000e+09 -1.400157504e+01 1.492782075e+02 2.635023911e+00 -2.459658184e-01 1.252421084e+00 -1.399962011e-01 -2.919998367e+00 2.385500610e+01
1.150000e+09 -1.386658665e+01 1.479613897e+02 2.635019637e+00 -2.458829043e-01 1.252306176e+00 -1.408075941e-01 -2.908745143e+00 2.364448978e+01
1.160000e+09 -1.373553771e+01 1.466680077e+02 2.635009879e+00 -2.458274701e-01 1.252188103e+00 -1.416216390e-01 -2.897862761e+00 2.343772295e+01
1.170000e+09 -1.360824660e+01 1.453974561e+02 2.634994851e+00 -2.457987107e-01 1.252066719e+00 -1.424380563e-01 -2.887331068e+00 2.323460627e+01
1.180000e+09 -1.348454150e+01 1.441491478e+02 2.634974764e+00 -2.457958375e-01 1.251941885e+00 -1.432565890e-01 -2.877130990e+00 2.303504360e+01
1.190000e+09 -1.336425988e+01 1.429225141e+02 2.634949835e+00 -2.458180775e-01 1.251813474e+00 -1.440770016e-01 -2.867244477e+00 2.283894185e+01
1.200000e+09 -1.324724800e+01 1.417170037e+02 2.634920277e+00 -2.458646735e-01 1.251681366e+00 -1.448990791e-01 -2.857654451e+00 2.264621092e+01
1.210000e+09 -1.313336038e+01 1.405320819e+02 2.634886304e+00 -2.459348845e-01 1.251545450e+00 -1.457226262e-01 -2.848344764e+00 2.245676358e+01
1.220000e+09 -1.302245940e+01 1.393672306e+02 2.634848126e+00 -2.460279849e-01 1.251405626e+00 -1.465474659e-01 -2.839300146e+00 2.227051537e+01
1.230000e+09 -1.291441485e+01 1.382219472e+02 2.634805952e+00 -2.461432648e-01 1.251261801e+00 -1.473734390e-01 -2.830506166e+00 2.208738448e+01
1.240000e+09 -1.280910352e+01 1.370957443e+02 2.634759986e+00 -2.462800302e-01 1.251113890e+00 -1.482004032e-01 -2.821949186e+00 2.190729170e+01
1.250000e+09 -1.270640882e+01 1.359881492e+02 2.634710427e+00 -2.464376024e-01 1.250961818e+00 -1.490282318e-01 -2.813616326e+00 2.173016031e+01
1.260000e+09 -1.260622040e+01 1.348987035e+02 2.634657471e+00 -2.466153183e-01 1.250805517e+00 -1.498568132e-01 -2.805495422e+00 2.155591599e+01
1.270000e+09 -1.250843384e+01 1.338269624e+02 2.634601307e+00 -2.468125305e-01 1.250644929e+00 -1.506860498e-01 -2.797574997e+00 2.138448674e+01
1.280000e+09 -1.241295030e+01 1.327724943e+02 2.634542119e+00 -2.470286067e-01 1.250480002e+00 -1.515158576e-01 -2.789844218e+00 2.121580281e+01
1.290000e+09 -1.231967621e+01 1.317348805e+02 2.634480085e+00 -2.472629303e-01 1.250310693e+00 -1.523461648e-01 -2.782292871e+00 2.104979661e+01
1.300000e+09 -1.222852299e+01 1.307137146e+02 2.634415376e+00 -2.475148998e-01 1.250136966e+00 -1.531769116e-01 -2.774911328e+00 2.088640264e+01
1.310000e+09 -1.213940678e+01 1.297086023e+02 2.634348155e+00 -2.477839291e-01 1.249958793e+00 -1.540080492e-01 -2.767690517e+00 2.072555741e+01
1.320000e+09 -1.205224815e+01 1.287191607e+02 2.634278579e+00 -2.480694472e-01 1.249776153e+00 -1.548395390e-01 -2.760621894e+00 2.056719940e+01
1.330000e+09 -1.196697190e+01 1.277450183e+02 2.634206799e+00 -2.483708985e-01 1.249589031e+00 -1.556713522e-01 -2.753697417e+00 2.041126895e+01
1.340000e+09 -1.188350678e+01 1.267858142e+02 2.634132956e+00 -2.486877421e-01 1.249397421e+00 -1.565034688e-01 -2.746909523e+00 2.025770825e+01
1.350000e+09 -1.180178532e+01 1.258411982e+02 2.634057186e+00 -2.490194525e-01 1.249201321e+00 -1.573358772e-01 -2.740251099e+00 2.010646120e+01
1.360000e+09 -1.172174357e+01 1.249108301e+02 2.633979615e+00 -2.493655188e-01 1.249000739e+00 -1.581685734e-01 -2.733715466e+00 1.995747344e+01
1.370000e+09 -1.164332094e+01 1.239943795e+02 2.633900363e+00 -2.497254452e-01 1.248795685e+00 -1.590015605e-01 -2.727296352e+00 1.981069224e+01
1.380000e+09 -1.156646002e+01 1.230915257e+02 2.633819542e+00 -2.500987505e-01 1.248586179e+00 -1.598348483e-01 -2.720987871e+00 1.966606642e+01
1.390000e+09 -1.149110637e+01 1.222019570e+02 2.633737257e+00 -2.504849684e-01 1.248372243e+00 -1.606684525e-01 -2.714784508e+00 1.952354638e+01
1.400000e+09 -1.141720838e+01 1.213253706e+02 2.633653604e+00 -2.508836469e-01 1.248153907e+00 -1.615023940e-01 -2.708681097e+00 1.938308396e+01
1.410000e+09 -1.134471710e+01 1.204614723e+02 2.633568673e+00 -2.512943487e-01 1.247931206e+00 -1.623366991e-01 -2.702672803e+00 1.924463244e+01
1.420000e+09 -1.127358613e+01 1.196099764e+02 2.633482547e+00 -2.517166507e-01 1.247704179e+00 -1.631713981e-01 -2.696755109e+00 1.910814649e+01
1.430000e+09 -1.120377141e+01 1.187706051e+02 2.633395299e+00 -2.521501442e-01 1.247472871e+00 -1.640065256e-01 -2.690923795e+00 1.897358210e+01
1.440000e+09 -1.113523116e+01 1.179430885e+02 2.633306998e+00 -2.525944346e-01 1.247237332e+00 -1.648421197e-01 -2.685174923e+00 1.884089656e+01
1.450000e+09 -1.106792571e+01 1.171271644e+02 2.633217705e+00 -2.530491414e-01 1.246997614e+00 -1.656782216e-01 -2.679504826e+00 1.871004840e+01
1.460000e+09 -1.100181741e+01 1.163225776e+02 2.633127474e+00 -2.535138977e-01 1.246753776e+00 -1.665148751e-01 -2.673910094e+00 1.858099734e+01
1.470000e+09 -1.093687049e+01 1.155290803e+02 2.633036352e+00 -2.539883509e-01 1.246505879e+00 -1.673521267e-01 -2.668387556e+00 1.845370430e+01
1.480000e+09 -1.087305098e+01 1.147464316e+02 2.632944381e+00 -2.544721614e-01 1.246253990e+00 -1.681900245e-01 -2.662934271e+00 1.832813129e+01
1.490000e+09 -1.081032660e+01 1.139743971e+02 2.632851594e+00 -2.549650036e-01 1.245998176e+00 -1.690286186e-01 -2.657547516e+00 1.820424143e+01
1.500000e+09 -1.074866668e+01 1.132127490e+02 2.632758023e+00 -2.554665649e-01 1.245738510e+00 -1.698679600e-01 -2.652224775e+00 1.808199888e+01
1.510000e+09 -1.068804204e+01 1.124612658e+02 2.632663688e+00 -2.559765459e-01 1.245475068e+00 -1.707081012e-01 -2.646963725e+00 1.796136883e+01
1.520000e+09 -1.062842494e+01 1.117197319e+02 2.632568609e+00 -2.564946605e-01 1.245207928e+00 -1.715490949e-01 -2.641762229e+00 1.784231744e+01
1.530000e+09 -1.056978898e+01 1.109879378e+02 2.632472798e+00 -2.570206352e-01 1.244937170e+00 -1.723909945e-01 -2.636618325e+00 1.772481183e+01
1.540000e+09 -1.051210906e+01 1.102656797e+02 2.632376261e+00 -2.575542091e-01 1.244662877e+00 -1.732338537e-01 -2.631530216e+00 1.760882005e+01
1.550000e+09 -1.045536123e+01 1.095527592e+02 2.632279002e+00 -2.580951340e-01 1.244385135e+00 -1.740777258e-01 -2.626496261e+00 1.749431101e+01
1.560000e+09 -1.039952274e+01 1.088489835e+02 2.632181018e+00 -2.586431740e-01 1.244104032e+00 -1.749226639e-01 -2.621514968e+00 1.738125453e+01
1.570000e+09 -1.034457188e+01 1.081541648e+02 2.632082304e+00 -2.591981053e-01 1.243819656e+00 -1.757687206e-01 -2.616584984e+00 1.726962122e+01
1.580000e+09 -1.029048794e+01 1.074681205e+02 2.631982848e+00 -2.597597159e-01 1.243532098e+00 -1.766159479e-01 -2.611705087e+00 1.715938252e+01
1.590000e+09 -1.023725121e+01 1.067906729e+02 2.631882637e+00 -2.603278059e-01 1.243241449e+00 -1.774643965e-01 -2.606874181e+00 1.705051065e+01
1.600000e+09 -1.018484287e+01 1.061216490e+02 2.631781653e+00 -2.609021867e-01 1.242947804e+00 -1.783141163e-01 -2.602091288e+00 1.694297857e+01
1.610000e+09 -1.013324493e+01 1.054608806e+02 2.631679875e+00 -2.614826811e-01 1.242651256e+00 -1.791651557e-01 -2.597355538e+00 1.683675999e+01
1.620000e+09 -1.008244026e+01 1.048082038e+02 2.631577279e+00 -2.620691231e-01 1.242351899e+00 -1.800175620e-01 -2.592666167e+00 1.673182934e+01
1.630000e+09 -1.003241247e+01 1.041634592e+02 2.631473838e+00 -2.626613576e-01 1.242049830e+00 -1.808713804e-01 -2.588022508e+00 1.662816169e+01
1.640000e+09 -9.983145875e+00 1.035264916e+02 2.631369523e+00 -2.632592402e-01 1.241745143e+00 -1.817266549e-01 -2.583423988e+00 1.652573283e+01
1.650000e+09 -9.934625510e+00 1.028971498e+02 2.631264303e+00 -2.638626371e-01 1.241437936e+00 -1.825834273e-01 -2.578870117e+00 1.642451915e+01
1.660000e+09 -9.886837038e+00 1.022752868e+02 2.631158143e+00 -2.644714246e-01 1.241128303e+00 -1.834417376e-01 -2.574360490e+00 1.632449770e+01
1.670000e+09 -9.839766739e+00 1.016607594e+02 2.631051009e+00 -2.650854894e-01 1.240816341e+00 -1.843016238e-01 -2.569894775e+00 1.622564609e+01
1.680000e+09 -9.793401469e+00 1.010534280e+02 2.630942864e+00 -2.657047276e-01 1.240502144e+00 -1.851631216e-01 -2.565472711e+00 1.612794257e+01
1.690000e+09 -9.747728635e+00 1.004531570e+02 2.630833670e+00 -2.663290452e-01 1.240185808e+00 -1.860262647e-01 -2.561094106e+00 1.603136591e+01
1.700000e+09 -9.702736158e+00 9.985981409e+01 2.630723387e+00 -2.669583573e-01 1.239867426e+00 -1.868910842e-01 -2.556758827e+00 1.593589546e+01
1.710000e+09 -9.658412450e+00 9.927327050e+01 2.630611976e+00 -2.675925884e-01 1.239547093e+00 -1.877576090e-01 -2.552466799e+00 1.584151108e+01
1.720000e+09 -9.614746388e+00 9.869340086e+01 2.630499396e+00 -2.682316716e-01 1.239224899e+00 -1.886258657e-01 -2.548218002e+00 1.574819316e+01
1.730000e+09 -9.571727285e+00 9.812008301e+01 2.630385606e+00 -2.688755487e-01 1.238900937e+00 -1.894958782e-01 -2.544012462e+00 1.565592259e+01
1.740000e+09 -9.529344868e+00 9.755319801e+01 2.630270565e+00 -2.695241700e-01 1.238575295e+00 -1.903676679e-01 -2.539850255e+00 1.556468075e+01
1.750000e+09 -9.487589258e+00 9.699262999e+01 2.630154233e+00 -2.701774937e-01 1.238248061e+00 -1.912412539e-01 -2.535731496e+00 1.547444948e+01
1.760000e+09 -9.446450946e+00 9.643826608e+01 2.630036568e+00 -2.708354859e-01 1.237919323e+00 -1.921166524e-01 -2.531656338e+00 1.538521108e+01
1.770000e+09 -9.405920774e+00 9.588999632e+01 2.629917531e+00 -2.714981204e-01 1.237589165e+00 -1.929938773e-01 -2.527624971e+00 1.529694830e+01
1.780000e+09 -9.365989916e+00 9.534771363e+01 2.629797082e+00 -2.721653781e-01 1.237257670e+00 -1.938729395e-01 -2.523637617e+00 1.520964431e+01
1.790000e+09 -9.326649859e+00 9.481131363e+01 2.629675183e+00 -2.728372472e-01 1.236924917e+00 -1.947538476e-01 -2.519694526e+00 1.512328272e+01
1.800000e+09 -9.287892390e+00 9.428069469e+01 2.629551795e+00 -2.735137226e-01 1.236590986e+00 -1.956366076e-01 -2.515795973e+00 1.503784750e+01
1.810000e+09 -9.249709575e+00 9.375575773e+01 2.629426884e+00 -2.741948054e-01 1.236255953e+00 -1.965212226e-01 -2.511942258e+00 1.495332307e+01
1.820000e+09 -9.212093745e+00 9.323640626e+01 2.629300414e+00 -2.748805035e-01 1.235919890e+00 -1.974076933e-01 -2.508133701e+00 1.486969418e+01
1.830000e+09 -9.175037485e+00 9.272254623e+01 2.629172352e+00 -2.755708302e-01 1.235582870e+00 -1.982960178e-01 -2.504370638e+00 1.478694599e+01
1.840000e+09 -9.138533615e+00 9.221408602e+01 2.629042666e+00 -2.762658048e-01 1.235244961e+00 -1.991861915e-01 -2.500653422e+00 1.470506400e+01
1.850000e+09 -9.102575181e+00 9.171093633e+01 2.628911328e+00 -2.769654518e-01 1.234906227e+00 -2.000782073e-01 -2.496982419e+00 1.462403407e+01
1.860000e+09 -9.067155441e+00 9.121301015e+01 2.628778310e+00 -2.776698009e-01 1.234566731e+00 -2.009720557e-01 -2.493358004e+00 1.454384238e+01
1.870000e+09 -9.032267853e+00 9.072022268e+01 2.628643586e+00 -2.783788865e-01 1.234226533e+00 -2.018677246e-01 -2.489780560e+00 1.446447547e+01
1.880000e+09 -8.997906064e+00 9.023249127e+01 2.628507134e+00 -2.790927476e-01 1.233885689e+00 -2.027651993e-01 -2.486250479e+00 1.438592018e+01
1.890000e+09 -8.964063898e+00 8.974973538e+01 2.628368934e+00 -2.798114274e-01 1.233544251e+00 -2.036644630e-01 -2.482768153e+00 1.430816366e+01
1.900000e+09 -8.930735349e+00 8.927187652e+01 2.628228967e+00 -2.805349728e-01 1.233202270e+00 -2.045654964e-01 -2.479333977e+00 1.423119339e+01
1.910000e+09 -8.897914568e+00 8.879883816e+01 2.628087219e+00 -2.812634345e-01 1.232859792e+00 -2.054682778e-01 -2.475948348e+00 1.415499711e+01
1.920000e+09 -8.865595854e+00 8.833054573e+01 2.627943677e+00 -2.819968665e-01 1.232516859e+00 -2.063727834e-01 -2.472611658e+00 1.407956288e+01
1.930000e+09 -8.833773646e+00 8.786692655e+01 2.627798332e+00 -2.827353258e-01 1.232173510e+00 -2.072789871e-01 -2.469324297e+00 1.400487900e+01
1.940000e+09 -8.802442513e+00 8.740790974e+01 2.627651178e+00 -2.834788719e-01 1.231829781e+00 -2.081868606e-01 -2.466086647e+00 1.393093409e+01
1.950000e+09 -8.771597146e+00 8.695342623e+01 2.627502210e+00 -2.842275668e-01 1.231485702e+00 -2.090963738e-01 -2.462899086e+00 1.385771700e+01
1.960000e+09 -8.741232351e+00 8.650340868e+01 2.627351430e+00 -2.849814747e-01 1.231141302e+00 -2.100074944e-01 -2.459761979e+00 1.378521685e+01
1.970000e+09 -8.711343039e+00 8.605779145e+01 2.627198839e+00 -2.857406612e-01 1.230796605e+00 -2.109201882e-01 -2.456675682e+00 1.371342301e+01
1.980000e+09 -8.681924219e+00 8.561651054e+01 2.627044444e+00 -2.865051937e-01 1.230451629e+00 -2.118344191e-01 -2.453640540e+00 1.364232508e+01
1.990000e+09 -8.652970991e+00 8.517950354e+01 2.626888255e+00 -2.872751404e-01 1.230106391e+00 -2.127501493e-01 -2.450656880e+00 1.357191293e+01
2.000000e+09 -8.624478538e+00 8.474670961e+01 2.626730285e+00 -2.880505705e-01 1.229760902e+00 -2.136673393e-01 -2.447725018e+00 1.350217662e+01
2.010000e+09 -8.596442120e+00 8.431806944e+01 2.626570549e+00 -2.888315536e-01 1.229415170e+00 -2.145859480e-01 -2.444845249e+00 1.343310648e+01
2.020000e+09 -8.568857064e+00 8.389352518e+01 2.626409067e+00 -2.896181595e-01 1.229069197e+00 -2.155059327e-01 -2.442017851e+00 1.336469303e+01
2.030000e+09 -8.541718760e+00 8.347302042e+01 2.626245861e+00 -2.904104576e-01 1.228722983e+00 -2.164272494e-01 -2.439243082e+00 1.329692701e+01
2.040000e+09 -8.515022654e+00 8.305650014e+01 2.626080959e+00 -2.912085171e-01 1.228376522e+00 -2.173498526e-01 -2.436521179e+00 1.322979937e+01
2.050000e+09 -8.488764237e+00 8.264391070e+01 2.625914390e+00 -2.920124061e-01 1.228029805e+00 -2.182736956e-01 -2.433852356e+00 1.316330127e+01
2.060000e+09 -8.462939046e+00 8.223519978e+01 2.625746186e+00 -2.928221918e-01 1.227682818e+00 -2.191987306e-01 -2.431236801e+00 1.309742408e+01
2.070000e+09 -8.437542647e+00 8.183031632e+01 2.625576384e+00 -2.936379398e-01 1.227335542e+00 -2.201249088e-01 -2.428674679e+00 1.303215932e+01
2.080000e+09 -8.412570638e+00 8.142921055e+01 2.625405023e+00 -2.944597138e-01 1.226987955e+00 -2.210521801e-01 -2.426166126e+00 1.296749876e+01
2.090000e+09 -8.388018636e+00 8.103183389e+01 2.625232146e+00 -2.952875755e-01 1.226640030e+00 -2.219804940e-01 -2.423711252e+00 1.290343430e+01
2.100000e+09 -8.363882272e+00 8.063813894e+01 2.625057798e+00 -2.961215841e-01 1.226291735e+00 -2.229097989e-01 -2.421310136e+00 1.283995806e+01
2.110000e+09 -8.340157184e+00 8.024807948e+01 2.624882029e+00 -2.969617960e-01 1.225943035e+00 -2.238400426e-01 -2.418962827e+00 1.277706231e+01
2.120000e+09 -8.316839011e+00 7.986161038e+01 2.624704890e+00 -2.978082645e-01 1.225593889e+00 -2.247711725e-01 -2.416669340e+00 1.271473952e+01
2.130000e+09 -8.293923384e+00 7.947868759e+01 2.624526435e+00 -2.986610395e-01 1.225244253e+00 -2.257031354e-01 -2.414429660e+00 1.265298229e+01
2.140000e+09 -8.271405920e+00 7.909926813e+01 2.624346722e+00 -2.995201672e-01 1.224894078e+00 -2.266358779e-01 -2.412243736e+00 1.259178343e+01
2.150000e+09 -8.249282216e+00 7.872331004e+01 2.624165811e+00 -3.003856896e-01 1.224543312e+00 -2.275693461e-01 -2.410111482e+00 1.253113586e+01
2.160000e+09 -8.227547839e+00 7.835077233e+01 2.623983764e+00 -3.012576444e-01 1.224191896e+00 -2.285034863e-01 -2.408032772e+00 1.247103271e+01
2.170000e+09 -8.206198319e+00 7.798161500e+01 2.623800647e+00 -3.021360645e-01 1.223839770e+00 -2.294382446e-01 -2.406007448e+00 1.241146722e+01
2.180000e+09 -8.185229145e+00 7.761579896e+01 2.623616525e+00 -3.030209780e-01 1.223486868e+00 -2.303735673e-01 -2.404035307e+00 1.235243280e+01
2.190000e+09 -8.164635750e+00 7.725328603e+01 2.623431469e+00 -3.039124074e-01 1.223133120e+00 -2.313094006e-01 -2.402116108e+00 1.229392300e+01
2.200000e+09 -8.144413512e+00 7.689403890e+01 2.623245549e+00 -3.048103700e-01 1.222778452e+00 -2.322456915e-01 -2.400249570e+00 1.223593153e+01
2.210000e+09 -8.124557739e+00 7.653802112e+01 2.623058838e+00 -3.057148768e-01 1.222422788e+00 -2.331823870e-01 -2.398435367e+00 1.217845220e+01
2.220000e+09 -8.105063660e+00 7.618519702e+01 2.622871410e+00 -3.066259327e-01 1.222066045e+00 -2.341194348e-01 -2.396673129e+00 1.212147901e+01
2.230000e+09 -8.085926424e+00 7.583553176e+01 2.622683340e+00 -3.075435363e-01 1.221708139e+00 -2.350567833e-01 -2.394962444e+00 1.206500605e+01
2.240000e+09 -8.067141084e+00 7.548899124e+01 2.622494704e+00 -3.084676793e-01 1.221348981e+00 -2.359943815e-01 -2.393302851e+00 1.200902755e+01
2.250000e+09 -8.048702589e+00 7.514554208e+01 2.622305580e+00 -3.093983464e-01 1.220988479e+00 -2.369321794e-01 -2.391693844e+00 1.195353789e+01
2.260000e+09 -8.030605778e+00 7.480515163e+01 2.622116045e+00 -3.103355149e-01 1.220626537e+00 -2.378701278e-01 -2.390134866e+00 1.189853154e+01
2.270000e+09 -8.012845369e+00 7.446778791e+01 2.621926177e+00 -3.112791548e-01 1.220263057e+00 -2.388081787e-01 -2.388625313e+00 1.184400313e+01
2.280000e+09 -7.995415947e+00 7.413341959e+01 2.621736055e+00 -3.122292282e-01 1.219897936e+00 -2.397462850e-01 -2.387164531e+00 1.178994738e+01
2.290000e+09 -7.978311958e+00 7.380201596e+01 2.621545755e+00 -3.131856891e-01 1.219531070e+00 -2.406844013e-01 -2.385751813e+00 1.173635913e+01
2.300000e+09 -7.961527694e+00 7.347354693e+01 2.621355356e+00 -3.141484835e-01 1.219162352e+00 -2.416224832e-01 -2.384386400e+00 1.168323335e+01
2.310000e+09 -7.945057290e+00 7.314798295e+01 2.621164934e+00 -3.151175488e-01 1.218791672e+00 -2.425604877e-01 -2.383067481e+00 1.163056509e+01
2.320000e+09 -7.928894703e+00 7.282529503e+01 2.620974563e+00 -3.160928139e-01 1.218418917e+00 -2.434983737e-01 -2.381794187e+00 1.157834954e+01
2.330000e+09 -7.913033711e+00 7.250545472e+01 2.620784318e+00 -3.170741989e-01 1.218043973e+00 -2.444361014e-01 -2.380565597e+00 1.152658198e+01
2.340000e+09 -7.897467896e+00 7.218843402e+01 2.620594270e+00 -3.180616148e-01 1.217666724e+00 -2.453736327e-01 -2.379380733e+00 1.147525779e+01
2.350000e+09 -7.882190633e+00 7.187420542e+01 2.620404490e+00 -3.190549638e-01 1.217287052e+00 -2.463109317e-01 -2.378238559e+00 1.142437245e+01
2.360000e+09 -7.867195081e+00 7.156274186e+01 2.620215044e+00 -3.200541386e-01 1.216904837e+00 -2.472479637e-01 -2.377137980e+00 1.137392154e+01
2.370000e+09 -7.852474169e+00 7.125401666e+01 2.620025997e+00 -3.210590228e-01 1.216519960e+00 -2.481846966e-01 -2.376077843e+00 1.132390073e+01
2.380000e+09 -7.838020584e+00 7.094800354e+01 2.619837410e+00 -3.220694906e-01 1.216132298e+00 -2.491210998e-01 -2.375056935e+00 1.127430579e+01
2.390000e+09 -7.823826760e+00 7.064467660e+01 2.619649341e+00 -3.230854066e-01 1.215741730e+00 -2.500571449e-01 -2.374073982e+00 1.122513256e+01
2.400000e+09 -7.809884865e+00 7.034401022e+01 2.619461843e+00 -3.241066262e-01 1.215348133e+00 -2.509928058e-01 -2.373127649e+00 1.117637699e+01
2.410000e+09 -7.796186785e+00 7.004597914e+01 2.619274966e+00 -3.251329951e-01 1.214951387e+00 -2.519280584e-01 -2.372216538e+00 1.112803509e+01
2.420000e+09 -7.782724117e+00 6.975055833e+01 2.619088754e+00 -3.261643496e-01 1.214551369e+00 -2.528628806e-01 -2.371339188e+00 1.108010296e+01
2.430000e+09 -7.769488153e+00 6.945772303e+01 2.618903248e+00 -3.272005166e-01 1.214147958e+00 -2.537972528e-01 -2.370494075e+00 1.103257676e+01
2.440000e+09 -7.756469864e+00 6.916744869e+01 2.618718480e+00 -3.282413138e-01 1.213741035e+00 -2.547311577e-01 -2.369679612e+00 1.098545276e+01
2.450000e+09 -7.743659894e+00 6.887971096e+01 2.618534480e+00 -3.292865496e-01 1.213330483e+00 -2.556645799e-01 -2.368894145e+00 1.093872725e+01
2.460000e+09 -7.731048540e+00 6.859448565e+01 2.618351268e+00 -3.303360233e-01 1.212916184e+00 -2.565975066e-01 -2.368135957e+00 1.089239662e+01
2.470000e+09 -7.718625742e+00 6.831174869e+01 2.618168861e+00 -3.313895255e-01 1.212498025e+00 -2.575299272e-01 -2.367403265e+00 1.084645732e+01
2.480000e+09 -7.706381068e+00 6.803147614e+01 2.617987266e+00 -3.324468380e-01 1.212075896e+00 -2.584618333e-01 -2.366694221e+00 1.080090585e+01
2.490000e+09 -7.694303705e+00 6.775364410e+01 2.617806484e+00 -3.335077344e-01 1.211649689e+00 -2.593932188e-01 -2.366006909e+00 1.075573876e+01
2.500000e+09 -7.682382440e+00 6.747822875e+01 2.617626509e+00 -3.345719801e-01 1.211219300e+00 -2.603240797e-01 -2.365339350e+00 1.071095266e+01
2.510000e+09 -7.670605652e+00 6.720520626e+01 2.617447325e+00 -3.356393329e-01 1.210784630e+00 -2.612544143e-01 -2.364689499e+00 1.066654421e+01
2.520000e+09 -7.658961296e+00 6.693455278e+01 2.617268908e+00 -3.367095433e-01 1.210345584e+00 -2.621842230e-01 -2.364055242e+00 1.062251011e+01
2.530000e+09 -7.647436894e+00 6.666624443e+01 2.617091228e+00 -3.377823549e-01 1.209902072e+00 -2.631135081e-01 -2.363434405e+00 1.057884710e+01
2.540000e+09 -7.636019521e+00 6.640025724e+01 2.616914241e+00 -3.388575052e-01 1.209454012e+00 -2.640422741e-01 -2.362824744e+00 1.053555195e+01
2.550000e+09 -7.624695791e+00 6.613656712e+01 2.616737897e+00 -3.399347256e-01 1.209001325e+00 -2.649705272e-01 -2.362223953e+00 1.049262146e+01
2.560000e+09 -7.613451853e+00 6.587514984e+01 2.616562136e+00 -3.410137425e-01 1.208543943e+00 -2.658982756e-01 -2.361629662e+00 1.045005247e+01
2.570000e+09 -7.602273373e+00 6.561598101e+01 2.616386887e+00 -3.420942780e-01 1.208081802e+00 -2.668255290e-01 -2.361039439e+00 1.040784182e+01
2.580000e+09 -7.591145529e+00 6.535903600e+01 2.616212070e+00 -3.431760501e-01 1.207614847e+00 -2.677522988e-01 -2.360450788e+00 1.036598638e+01
2.590000e+09 -7.580053001e+00 6.510428995e+01 2.616037594e+00 -3.442587743e-01 1.207143034e+00 -2.686785976e-01 -2.359861155e+00 1.032448302e+01
2.600000e+09 -7.568979962e+00 6.485171772e+01 2.615863357e+00 -3.453421636e-01 1.206666325e+00 -2.696044395e-01 -2.359267925e+00 1.028332862e+01
2.610000e+09 -7.557910073e+00 6.460129385e+01 2.615689248e+00 -3.464259301e-01 1.206184695e+00 -2.705298396e-01 -2.358668427e+00 1.024252005e+01
2.620000e+09 -7.546826474e+00 6.435299254e+01 2.615515144e+00 -3.475097858e-01 1.205698128e+00 -2.714548140e-01 -2.358059933e+00 1.020205419e+01
2.630000e+09 -7.535711784e+00 6.410678760e+01 2.615340911e+00 -3.485934435e-01 1.205206620e+00 -2.723793795e-01 -2.357439663e+00 1.016192789e+01
2.640000e+09 -7.524548093e+00 6.386265242e+01 2.615166406e+00 -3.496766183e-01 1.204710179e+00 -2.733035534e-01 -2.356804786e+00 1.012213798e+01
2.650000e+09 -7.513316965e+00 6.362055993e+01 2.614991474e+00 -3.507590286e-01 1.204208825e+00 -2.742273534e-01 -2.356152423e+00 1.008268128e+01
2.660000e+09 -7.501999434e+00 6.338048257e+01 2.614815949e+00 -3.518403973e-01 1.203702593e+00 -2.751507973e-01 -2.355479648e+00 1.004355454e+01
2.670000e+09 -7.490576010e+00 6.314239225e+01 2.614639656e+00 -3.529204535e-01 1.203191531e+00 -2.760739027e-01 -2.354783495e+00 1.000475452e+01
2.680000e+09 -7.479026682e+00 6.290626033e+01 2.614462410e+00 -3.539989338e-01 1.202675701e+00 -2.769966870e-01 -2.354060961e+00 9.966277883e+00
2.690000e+09 -7.467330921e+00 6.267205753e+01 2.614284016e+00 -3.550755840e-01 1.202155182e+00 -2.779191667e-01 -2.353309007e+00 9.928121261e+00
2.700000e+09 -7.455467695e+00 6.243975398e+01 2.614104268e+00 -3.561501605e-01 1.201630070e+00 -2.788413576e-01 -2.352524566e+00 9.890281215e+00
2.710000e+09 -7.443415476e+00 6.220931908e+01 2.613922954e+00 -3.572224323e-01 1.201100474e+00 -2.797632742e-01 -2.351704546e+00 9.852754233e+00
2.720000e+09 -7.431152257e+00 6.198072157e+01 2.613739852e+00 -3.582921827e-01 1.200566526e+00 -2.806849295e-01 -2.350845834e+00 9.815536721e+00
2.730000e+09 -7.418655566e+00 6.175392939e+01 2.613554732e+00 -3.593592113e-01 1.200028371e+00 -2.816063348e-01 -2.349945307e+00 9.778624996e+00
2.740000e+09 -7.405902491e+00 6.152890975e+01 2.613367358e+00 -3.604233360e-01 1.199486176e+00 -2.825274992e-01 -2.348999833e+00 9.742015274e+00
2.750000e+09 -7.392869705e+00 6.130562898e+01 2.613177489e+00 -3.614843950e-01 1.198940127e+00 -2.834484295e-01 -2.348006279e+00 9.705703665e+00
2.760000e+09 -7.379533488e+00 6.108405261e+01 2.612984877e+00 -3.625422492e-01 1.198390431e+00 -2.843691297e-01 -2.346961520e+00 9.669686158e+00
2.770000e+09 -7.365869766e+00 6.086414524e+01 2.612789271e+00 -3.635967843e-01 1.197837313e+00 -2.852896010e-01 -2.345862445e+00 9.633958616e+00
2.780000e+09 -7.351854144e+00 6.064587057e+01 2.612590417e+00 -3.646479134e-01 1.197281023e+00 -2.862098409e-01 -2.344705967e+00 9.598516765e+00
2.790000e+09 -7.337461949e+00 6.042919134e+01 2.612388059e+00 -3.656955793e-01 1.196721830e+00 -2.871298436e-01 -2.343489031e+00 9.563356183e+00
2.800000e+09 -7.322668273e+00 6.021406929e+01 2.612181944e+00 -3.667397571e-01 1.196160028e+00 -2.880495990e-01 -2.342208624e+00 9.528472291e+00
2.810000e+09 -7.307448028e+00 6.000046517e+01 2.611971816e+00 -3.677804571e-01 1.195595931e+00 -2.889690928e-01 -2.340861786e+00 9.493860340e+00
2.820000e+09 -7.291776002e+00 5.978833867e+01 2.611757426e+00 -3.688177270e-01 1.195029879e+00 -2.898883063e-01 -2.339445619e+00 9.459515407e+00
2.830000e+09 -7.275626916e+00 5.957764842e+01 2.611538528e+00 -3.698516553e-01 1.194462234e+00 -2.908072156e-01 -2.337957302e+00 9.425432377e+00
2.840000e+09 -7.258975499e+00 5.936835196e+01 2.611314884e+00 -3.708823741e-01 1.193893383e+00 -2.917257918e-01 -2.336394100e+00 9.391605939e+00
2.850000e+09 -7.241796558e+00 5.916040572e+01 2.611086265e+00 -3.719100618e-01 1.193323738e+00 -2.926440006e-01 -2.334753380e+00 9.358030570e+00
2.860000e+09 -7.224065060e+00 5.895376500e+01 2.610852455e+00 -3.729349462e-01 1.192753734e+00 -2.935618017e-01 -2.333032623e+00 9.324700531e+00
2.870000e+09 -7.205756218e+00 5.874838395e+01 2.610613250e+00 -3.739573080e-01 1.192183830e+00 -2.944791491e-01 -2.331229441e+00 9.291609851e+00
2.880000e+09 -7.186845588e+00 5.854421556e+01 2.610368464e+00 -3.749774836e-01 1.191614512e+00 -2.953959905e-01 -2.329341591e+00 9.258752321e+00
2.890000e+09 -7.167309167e+00 5.834121169e+01 2.610117930e+00 -3.759958684e-01 1.191046290e+00 -2.963122673e-01 -2.327366990e+00 9.226121483e+00
2.900000e+09 -7.147123506e+00 5.813932301e+01 2.609861505e+00 -3.770129200e-01 1.190479696e+00 -2.972279143e-01 -2.325303737e+00 9.193710619e+00
2.910000e+09 -7.126265822e+00 5.793849902e+01 2.609599069e+00 -3.780291618e-01 1.189915288e+00 -2.981428597e-01 -2.323150124e+00 9.161512746e+00
2.920000e+09 -7.104714125e+00 5.773868808e+01 2.609330533e+00 -3.790451859e-01 1.189353649e+00 -2.990570249e-01 -2.320904663e+00 9.129520603e+00
2.930000e+09 -7.082447350e+00 5.753983740e+01 2.609055840e+00 -3.800616566e-01 1.188795383e+00 -2.999703243e-01 -2.318566099e+00 9.097726645e+00
2.940000e+09 -7.059445494e+00 5.734189307e+01 2.608774969e+00 -3.810793138e-01 1.188241116e+00 -3.008826656e-01 -2.316133434e+00 9.066123039e+00
2.950000e+09 -7.035689771e+00 5.714480005e+01 2.608487939e+00 -3.820989762e-01 1.187691499e+00 -3.017939498e-01 -2.313605948e+00 9.034701648e+00
2.960000e+09 -7.011162762e+00 5.694850226e+01 2.608194813e+00 -3.831215444e-01 1.187147200e+00 -3.027040708e-01 -2.310983219e+00 9.003454036e+00
2.970000e+09 -6.985848582e+00 5.675294257e+01 2.607895701e+00 -3.841480043e-01 1.186608908e+00 -3.036129160e-01 -2.308265148e+00 8.972371456e+00
2.980000e+09 -6.959733054e+00 5.655806287e+01 2.607590768e+00 -3.851794302e-01 1.186077332e+00 -3.045203665e-01 -2.305451984e+00 8.941444847e+00
2.990000e+09 -6.932803889e+00 5.636380409e+01 2.607280233e+00 -3.862169877e-01 1.185553195e+00 -3.054262969e-01 -2.302544344e+00 8.910664833e+00
3.000000e+09 -6.905050878e+00 5.617010633e+01 2.606964378e+00 -3.872619367e-01 1.185037236e+00 -3.063305761e-01 -2.299543241e+00 8.880021720e+00
