! rfsim (KiCad + openEMS)
# HZ S RI R 50
5.000000e+08 -9.987113109e-01 3.600515310e-02 2.415788358e-04 4.406269841e-03 2.548914969e-04 4.411684913e-03 -9.990199141e-01 2.733257501e-02
5.100000e+08 -9.986650442e-01 3.672844955e-02 2.491237631e-04 4.496230336e-03 2.605981124e-04 4.499650252e-03 -9.990071673e-01 2.786563864e-02
5.200000e+08 -9.986180246e-01 3.745129726e-02 2.567667895e-04 4.586192241e-03 2.663184019e-04 4.587770534e-03 -9.989946705e-01 2.839940297e-02
5.300000e+08 -9.985702706e-01 3.817372233e-02 2.645097415e-04 4.676161308e-03 2.720645751e-04 4.676049727e-03 -9.989823447e-01 2.893387195e-02
5.400000e+08 -9.985217991e-01 3.889575255e-02 2.723544659e-04 4.766143587e-03 2.778483093e-04 4.764491562e-03 -9.989701151e-01 2.946904693e-02
5.500000e+08 -9.984726256e-01 3.961741717e-02 2.803028285e-04 4.856145383e-03 2.836807490e-04 4.853099549e-03 -9.989579105e-01 3.000492698e-02
5.600000e+08 -9.984227637e-01 4.033874665e-02 2.883567120e-04 4.946173214e-03 2.895725091e-04 4.941876995e-03 -9.989456641e-01 3.054150904e-02
5.700000e+08 -9.983722260e-01 4.105977241e-02 2.965180148e-04 5.036233778e-03 2.955336806e-04 5.030827018e-03 -9.989333129e-01 3.107878823e-02
5.800000e+08 -9.983210231e-01 4.178052668e-02 3.047886495e-04 5.126333915e-03 3.015738380e-04 5.119952567e-03 -9.989207980e-01 3.161675796e-02
5.900000e+08 -9.982691647e-01 4.250104224e-02 3.131705418e-04 5.216480579e-03 3.077020490e-04 5.209256430e-03 -9.989080640e-01 3.215541018e-02
6.000000e+08 -9.982166587e-01 4.322135227e-02 3.216656296e-04 5.306680806e-03 3.139268859e-04 5.298741251e-03 -9.988950595e-01 3.269473554e-02
6.100000e+08 -9.981635118e-01 4.394149020e-02 3.302758615e-04 5.396941687e-03 3.202564376e-04 5.388409540e-03 -9.988817367e-01 3.323472353e-02
6.200000e+08 -9.981097296e-01 4.466148952e-02 3.390031959e-04 5.487270343e-03 3.266983231e-04 5.478263684e-03 -9.988680511e-01 3.377536265e-02
6.300000e+08 -9.980553161e-01 4.538138365e-02 3.478496002e-04 5.577673904e-03 3.332597060e-04 5.568305960e-03 -9.988539620e-01 3.431664054e-02
6.400000e+08 -9.980002743e-01 4.610120584e-02 3.568170497e-04 5.668159484e-03 3.399473091e-04 5.658538541e-03 -9.988394316e-01 3.485854411e-02
6.500000e+08 -9.979446061e-01 4.682098902e-02 3.659075264e-04 5.758734164e-03 3.467674300e-04 5.748963509e-03 -9.988244257e-01 3.540105966e-02
6.600000e+08 -9.978883122e-01 4.754076568e-02 3.751230181e-04 5.849404975e-03 3.537259567e-04 5.839582857e-03 -9.988089128e-01 3.594417300e-02
6.700000e+08 -9.978313923e-01 4.826056783e-02 3.844655178e-04 5.940178880e-03 3.608283836e-04 5.930398506e-03 -9.987928645e-01 3.648786954e-02
6.800000e+08 -9.977738452e-01 4.898042685e-02 3.939370220e-04 6.031062761e-03 3.680798278e-04 6.021412304e-03 -9.987762553e-01 3.703213436e-02
6.900000e+08 -9.977156686e-01 4.970037346e-02 4.035395303e-04 6.122063407e-03 3.754850450e-04 6.112626037e-03 -9.987590621e-01 3.757695234e-02
7.000000e+08 -9.976568594e-01 5.042043763e-02 4.132750440e-04 6.213187500e-03 3.830484459e-04 6.204041436e-03 -9.987412647e-01 3.812230822e-02
7.100000e+08 -9.975974138e-01 5.114064851e-02 4.231455654e-04 6.304441609e-03 3.907741121e-04 6.295660180e-03 -9.987228451e-01 3.866818665e-02
7.200000e+08 -9.975373270e-01 5.186103442e-02 4.331530967e-04 6.395832176e-03 3.986658121e-04 6.387483905e-03 -9.987037877e-01 3.921457229e-02
7.300000e+08 -9.974765937e-01 5.258162274e-02 4.432996390e-04 6.487365513e-03 4.067270168e-04 6.479514207e-03 -9.986840790e-01 3.976144987e-02
7.400000e+08 -9.974152077e-01 5.330243993e-02 4.535871912e-04 6.579047794e-03 4.149609154e-04 6.571752648e-03 -9.986637078e-01 4.030880419e-02
7.500000e+08 -9.973531624e-01 5.402351147e-02 4.640177496e-04 6.670885047e-03 4.233704301e-04 6.664200760e-03 -9.986426645e-01 4.085662025e-02
7.600000e+08 -9.972904505e-01 5.474486186e-02 4.745933063e-04 6.762883156e-03 4.319582311e-04 6.756860050e-03 -9.986209418e-01 4.140488323e-02
7.700000e+08 -9.972270642e-01 5.546651454e-02 4.853158486e-04 6.855047850e-03 4.407267512e-04 6.849732005e-03 -9.985985336e-01 4.195357857e-02
7.800000e+08 -9.971629952e-01 5.618849197e-02 4.961873583e-04 6.947384707e-03 4.496782000e-04 6.942818094e-03 -9.985754359e-01 4.250269199e-02
7.900000e+08 -9.970982348e-01 5.691081553e-02 5.072098107e-04 7.039899146e-03 4.588145777e-04 7.036119775e-03 -9.985516458e-01 4.305220952e-02
8.000000e+08 -9.970327740e-01 5.763350558e-02 5.183851739e-04 7.132596431e-03 4.681376882e-04 7.129638495e-03 -9.985271621e-01 4.360211752e-02
8.100000e+08 -9.969666032e-01 5.835658143e-02 5.297154079e-04 7.225481670e-03 4.776491525e-04 7.223375693e-03 -9.985019848e-01 4.415240276e-02
8.200000e+08 -9.968997127e-01 5.908006133e-02 5.412024640e-04 7.318559811e-03 4.873504212e-04 7.317332808e-03 -9.984761152e-01 4.470305237e-02
8.300000e+08 -9.968320924e-01 5.980396251e-02 5.528482844e-04 7.411835650e-03 4.972427863e-04 7.411511279e-03 -9.984495554e-01 4.525405389e-02
8.400000e+08 -9.967637322e-01 6.052830120e-02 5.646548010e-04 7.505313824e-03 5.073273934e-04 7.505912544e-03 -9.984223090e-01 4.580539531e-02
8.500000e+08 -9.966946215e-01 6.125309258e-02 5.766239356e-04 7.598998822e-03 5.176052530e-04 7.600538052e-03 -9.983943802e-01 4.635706506e-02
8.600000e+08 -9.966247498e-01 6.197835086e-02 5.887575986e-04 7.692894979e-03 5.280772510e-04 7.695389255e-03 -9.983657741e-01 4.690905201e-02
8.700000e+08 -9.965541062e-01 6.270408929e-02 6.010576892e-04 7.787006486e-03 5.387441597e-04 7.790467619e-03 -9.983364967e-01 4.746134551e-02
8.800000e+08 -9.964826799e-01 6.343032013e-02 6.135260948e-04 7.881337387e-03 5.496066474e-04 7.885774622e-03 -9.983065547e-01 4.801393538e-02
8.900000e+08 -9.964104600e-01 6.415705476e-02 6.261646907e-04 7.975891588e-03 5.606652884e-04 7.981311755e-03 -9.982759552e-01 4.856681192e-02
9.000000e+08 -9.963374355e-01 6.488430361e-02 6.389753394e-04 8.070672856e-03 5.719205721e-04 8.077080530e-03 -9.982447062e-01 4.911996592e-02
9.100000e+08 -9.962635954e-01 6.561207627e-02 6.519598912e-04 8.165684826e-03 5.833729119e-04 8.173082475e-03 -9.982128159e-01 4.967338865e-02
9.200000e+08 -9.961889286e-01 6.634038146e-02 6.651201832e-04 8.260931005e-03 5.950226536e-04 8.269319139e-03 -9.981802932e-01 5.022707188e-02
9.300000e+08 -9.961134243e-01 6.706922709e-02 6.784580399e-04 8.356414778e-03 6.068700835e-04 8.365792096e-03 -9.981471470e-01 5.078100787e-02
9.400000e+08 -9.960370715e-01 6.779862028e-02 6.919752726e-04 8.452139407e-03 6.189154359e-04 8.462502942e-03 -9.981133869e-01 5.133518935e-02
9.500000e+08 -9.959598594e-01 6.852856740e-02 7.056736795e-04 8.548108042e-03 6.311589008e-04 8.559453301e-03 -9.980790226e-01 5.188960956e-02
9.600000e+08 -9.958817771e-01 6.925907408e-02 7.195550461e-04 8.644323726e-03 6.436006304e-04 8.656644823e-03 -9.980440639e-01 5.244426222e-02
9.700000e+08 -9.958028140e-01 6.999014526e-02 7.336211450e-04 8.740789393e-03 6.562407460e-04 8.754079187e-03 -9.980085210e-01 5.299914152e-02
9.800000e+08 -9.957229596e-01 7.072178523e-02 7.478737361e-04 8.837507882e-03 6.690793441e-04 8.851758105e-03 -9.979724040e-01 5.355424212e-02
9.900000e+08 -9.956422034e-01 7.145399764e-02 7.623145666e-04 8.934481936e-03 6.821165025e-04 8.949683318e-03 -9.979357233e-01 5.410955918e-02
1.000000e+09 -9.955605351e-01 7.218678556e-02 7.769453719e-04 9.031714212e-03 6.953522856e-04 9.047856600e-03 -9.978984890e-01 5.466508830e-02
1.010000e+09 -9.954779448e-01 7.292015147e-02 7.917678751e-04 9.129207281e-03 7.087867500e-04 9.146279760e-03 -9.978607116e-01 5.522082554e-02
1.020000e+09 -9.953944223e-01 7.365409735e-02 8.067837878e-04 9.226963638e-03 7.224199494e-04 9.244954643e-03 -9.978224013e-01 5.577676741e-02
1.030000e+09 -9.953099579e-01 7.438862468e-02 8.219948105e-04 9.324985705e-03 7.362519390e-04 9.343883129e-03 -9.977835683e-01 5.633291087e-02
1.040000e+09 -9.952245421e-01 7.512373446e-02 8.374026328e-04 9.423275836e-03 7.502827805e-04 9.443067135e-03 -9.977442227e-01 5.688925330e-02
1.050000e+09 -9.951381653e-01 7.585942728e-02 8.530089341e-04 9.521836324e-03 7.645125456e-04 9.542508618e-03 -9.977043745e-01 5.744579252e-02
1.060000e+09 -9.950508185e-01 7.659570331e-02 8.688153838e-04 9.620669404e-03 7.789413205e-04 9.642209572e-03 -9.976640336e-01 5.800252677e-02
1.070000e+09 -9.949624926e-01 7.733256236e-02 8.848236424e-04 9.719777259e-03 7.935692090e-04 9.742172034e-03 -9.976232096e-01 5.855945467e-02
1.080000e+09 -9.948731789e-01 7.807000391e-02 9.010353613e-04 9.819162028e-03 8.083963365e-04 9.842398079e-03 -9.975819120e-01 5.911657527e-02
1.090000e+09 -9.947828687e-01 7.880802713e-02 9.174521840e-04 9.918825805e-03 8.234228526e-04 9.942889824e-03 -9.975401501e-01 5.967388799e-02
1.100000e+09 -9.946915536e-01 7.954663091e-02 9.340757467e-04 1.001877065e-02 8.386489344e-04 1.004364943e-02 -9.974979328e-01 6.023139264e-02
1.110000e+09 -9.945992256e-01 8.028581390e-02 9.509076786e-04 1.011899858e-02 8.540747893e-04 1.014467910e-02 -9.974552691e-01 6.078908939e-02
1.120000e+09 -9.945058767e-01 8.102557450e-02 9.679496030e-04 1.021951161e-02 8.697006572e-04 1.024598108e-02 -9.974121674e-01 6.134697879e-02
1.130000e+09 -9.944114991e-01 8.176591096e-02 9.852031378e-04 1.032031171e-02 8.855268135e-04 1.034755766e-02 -9.973686359e-01 6.190506172e-02
1.140000e+09 -9.943160853e-01 8.250682134e-02 1.002669896e-03 1.042140083e-02 9.015535705e-04 1.044941118e-02 -9.973246827e-01 6.246333940e-02
1.150000e+09 -9.942196282e-01 8.324830356e-02 1.020351488e-03 1.052278092e-02 9.177812803e-04 1.055154402e-02 -9.972803154e-01 6.302181340e-02
1.160000e+09 -9.941221204e-01 8.399035543e-02 1.038249519e-03 1.062445392e-02 9.342103360e-04 1.065395861e-02 -9.972355414e-01 6.358048560e-02
1.170000e+09 -9.940235553e-01 8.473297467e-02 1.056365594e-03 1.072642176e-02 9.508411737e-04 1.075665741e-02 -9.971903677e-01 6.413935818e-02
1.180000e+09 -9.939239262e-01 8.547615893e-02 1.074701316e-03 1.082868635e-02 9.676742741e-04 1.085964296e-02 -9.971448010e-01 6.469843365e-02
1.190000e+09 -9.938232266e-01 8.621990583e-02 1.093258287e-03 1.093124964e-02 9.847101637e-04 1.096291782e-02 -9.970988479e-01 6.525771477e-02
1.200000e+09 -9.937214502e-01 8.696421295e-02 1.112038110e-03 1.103411356e-02 1.001949417e-03 1.106648460e-02 -9.970525143e-01 6.581720463e-02
1.210000e+09 -9.936185910e-01 8.770907787e-02 1.131042389e-03 1.113728005e-02 1.019392655e-03 1.117034598e-02 -9.970058060e-01 6.637690656e-02
1.220000e+09 -9.935146431e-01 8.845449819e-02 1.150272729e-03 1.124075109e-02 1.037040551e-03 1.127450465e-02 -9.969587284e-01 6.693682417e-02
1.230000e+09 -9.934096010e-01 8.920047156e-02 1.169730741e-03 1.134452864e-02 1.054893827e-03 1.137896339e-02 -9.969112867e-01 6.749696131e-02
1.240000e+09 -9.933034590e-01 8.994699568e-02 1.189418036e-03 1.144861470e-02 1.072953258e-03 1.148372501e-02 -9.968634854e-01 6.805732208e-02
1.250000e+09 -9.931962119e-01 9.069406831e-02 1.209336234e-03 1.155301131e-02 1.091219669e-03 1.158879236e-02 -9.968153291e-01 6.861791084e-02
1.260000e+09 -9.930878546e-01 9.144168733e-02 1.229486958e-03 1.165772049e-02 1.109693939e-03 1.169416835e-02 -9.967668219e-01 6.917873213e-02
1.270000e+09 -9.929783820e-01 9.218985069e-02 1.249871838e-03 1.176274434e-02 1.128377002e-03 1.179985595e-02 -9.967179673e-01 6.973979075e-02
1.280000e+09 -9.928677895e-01 9.293855650e-02 1.270492514e-03 1.186808497e-02 1.147269843e-03 1.190585817e-02 -9.966687689e-01 7.030109170e-02
1.290000e+09 -9.927560723e-01 9.368780298e-02 1.291350632e-03 1.197374452e-02 1.166373505e-03 1.201217806e-02 -9.966192297e-01 7.086264017e-02
1.300000e+09 -9.926432260e-01 9.443758851e-02 1.312447849e-03 1.207972517e-02 1.185689083e-03 1.211881875e-02 -9.965693523e-01 7.142444155e-02
1.310000e+09 -9.925292461e-01 9.518791162e-02 1.333785833e-03 1.218602915e-02 1.205217730e-03 1.222578338e-02 -9.965191394e-01 7.198650141e-02
1.320000e+09 -9.924141285e-01 9.593877104e-02 1.355366263e-03 1.229265873e-02 1.224960652e-03 1.233307518e-02 -9.964685928e-01 7.254882550e-02
1.330000e+09 -9.922978691e-01 9.669016567e-02 1.377190832e-03 1.239961622e-02 1.244919113e-03 1.244069741e-02 -9.964177143e-01 7.311141975e-02
1.340000e+09 -9.921804639e-01 9.744209460e-02 1.399261244e-03 1.250690398e-02 1.265094432e-03 1.254865338e-02 -9.963665055e-01 7.367429023e-02
1.350000e+09 -9.920619090e-01 9.819455713e-02 1.421579222e-03 1.261452442e-02 1.285487985e-03 1.265694647e-02 -9.963149675e-01 7.423744319e-02
1.360000e+09 -9.919422007e-01 9.894755279e-02 1.444146500e-03 1.272247999e-02 1.306101204e-03 1.276558009e-02 -9.962631010e-01 7.480088499e-02
1.370000e+09 -9.918213353e-01 9.970108132e-02 1.466964833e-03 1.283077322e-02 1.326935577e-03 1.287455771e-02 -9.962109066e-01 7.536462215e-02
1.380000e+09 -9.916993093e-01 1.004551427e-01 1.490035991e-03 1.293940666e-02 1.347992650e-03 1.298388286e-02 -9.961583846e-01 7.592866133e-02
1.390000e+09 -9.915761191e-01 1.012097371e-01 1.513361763e-03 1.304838294e-02 1.369274025e-03 1.309355912e-02 -9.961055349e-01 7.649300930e-02
1.400000e+09 -9.914517614e-01 1.019648650e-01 1.536943960e-03 1.315770475e-02 1.390781359e-03 1.320359010e-02 -9.960523572e-01 7.705767294e-02
1.410000e+09 -9.913262329e-01 1.027205272e-01 1.560784412e-03 1.326737483e-02 1.412516369e-03 1.331397949e-02 -9.959988507e-01 7.762265926e-02
1.420000e+09 -9.911995301e-01 1.034767245e-01 1.584884970e-03 1.337739597e-02 1.434480825e-03 1.342473102e-02 -9.959450148e-01 7.818797535e-02
1.430000e+09 -9.910716500e-01 1.042334582e-01 1.609247512e-03 1.348777104e-02 1.456676556e-03 1.353584847e-02 -9.958908482e-01 7.875362843e-02
1.440000e+09 -9.909425893e-01 1.049907298e-01 1.633873935e-03 1.359850298e-02 1.479105448e-03 1.364733568e-02 -9.958363494e-01 7.931962576e-02
1.450000e+09 -9.908123449e-01 1.057485411e-01 1.658766166e-03 1.370959476e-02 1.501769443e-03 1.375919654e-02 -9.957815170e-01 7.988597474e-02
1.460000e+09 -9.906809136e-01 1.065068940e-01 1.683926153e-03 1.382104946e-02 1.524670537e-03 1.387143497e-02 -9.957263488e-01 8.045268280e-02
1.470000e+09 -9.905482924e-01 1.072657909e-01 1.709355876e-03 1.393287019e-02 1.547810786e-03 1.398405499e-02 -9.956708429e-01 8.101975746e-02
1.480000e+09 -9.904144782e-01 1.080252344e-01 1.735057340e-03 1.404506014e-02 1.571192300e-03 1.409706062e-02 -9.956149968e-01 8.158720632e-02
1.490000e+09 -9.902794679e-01 1.087852272e-01 1.761032581e-03 1.415762258e-02 1.594817248e-03 1.421045597e-02 -9.955588079e-01 8.215503701e-02
1.500000e+09 -9.901432584e-01 1.095457726e-01 1.787283665e-03 1.427056083e-02 1.618687853e-03 1.432424518e-02 -9.955022734e-01 8.272325722e-02
1.510000e+09 -9.900058466e-01 1.103068739e-01 1.813812688e-03 1.438387828e-02 1.642806394e-03 1.443843245e-02 -9.954453902e-01 8.329187471e-02
1.520000e+09 -9.898672294e-01 1.110685347e-01 1.840621781e-03 1.449757841e-02 1.667175207e-03 1.455302203e-02 -9.953881552e-01 8.386089725e-02
1.530000e+09 -9.897274036e-01 1.118307592e-01 1.867713108e-03 1.461166476e-02 1.691796686e-03 1.466801823e-02 -9.953305649e-01 8.443033265e-02
1.540000e+09 -9.895863662e-01 1.125935515e-01 1.895088866e-03 1.472614093e-02 1.716673277e-03 1.478342540e-02 -9.952726156e-01 8.500018878e-02
1.550000e+09 -9.894441139e-01 1.133569161e-01 1.922751289e-03 1.484101060e-02 1.741807486e-03 1.489924795e-02 -9.952143035e-01 8.557047349e-02
1.560000e+09 -9.893006434e-01 1.141208577e-01 1.950702649e-03 1.495627752e-02 1.767201873e-03 1.501549034e-02 -9.951556246e-01 8.614119469e-02
1.570000e+09 -9.891559514e-01 1.148853816e-01 1.978945253e-03 1.507194552e-02 1.792859054e-03 1.513215707e-02 -9.950965748e-01 8.671236026e-02
1.580000e+09 -9.890100346e-01 1.156504928e-01 2.007481450e-03 1.518801848e-02 1.818781702e-03 1.524925270e-02 -9.950371498e-01 8.728397812e-02
1.590000e+09 -9.888628895e-01 1.164161972e-01 2.036313628e-03 1.530450039e-02 1.844972547e-03 1.536678184e-02 -9.949773449e-01 8.785605618e-02
1.600000e+09 -9.887145125e-01 1.171825005e-01 2.065444216e-03 1.542139527e-02 1.871434372e-03 1.548474916e-02 -9.949171556e-01 8.842860235e-02
1.610000e+09 -9.885649001e-01 1.179494087e-01 2.094875686e-03 1.553870724e-02 1.898170019e-03 1.560315937e-02 -9.948565770e-01 8.900162453e-02
1.620000e+09 -9.884140487e-01 1.187169284e-01 2.124610552e-03 1.565644049e-02 1.925182386e-03 1.572201723e-02 -9.947956043e-01 8.957513060e-02
1.630000e+09 -9.882619542e-01 1.194850660e-01 2.154651375e-03 1.577459926e-02 1.952474426e-03 1.584132756e-02 -9.947342322e-01 9.014912843e-02
1.640000e+09 -9.881086130e-01 1.202538285e-01 2.185000760e-03 1.589318788e-02 1.980049149e-03 1.596109521e-02 -9.946724558e-01 9.072362587e-02
1.650000e+09 -9.879540209e-01 1.210232229e-01 2.215661359e-03 1.601221076e-02 2.007909623e-03 1.608132510e-02 -9.946102695e-01 9.129863072e-02
1.660000e+09 -9.877981738e-01 1.217932566e-01 2.246635874e-03 1.613167236e-02 2.036058971e-03 1.620202218e-02 -9.945476679e-01 9.187415077e-02
1.670000e+09 -9.876410676e-01 1.225639372e-01 2.277927052e-03 1.625157723e-02 2.064500373e-03 1.632319148e-02 -9.944846455e-01 9.245019375e-02
1.680000e+09 -9.874826976e-01 1.233352723e-01 2.309537694e-03 1.637192997e-02 2.093237067e-03 1.644483805e-02 -9.944211967e-01 9.302676737e-02
1.690000e+09 -9.873230596e-01 1.241072701e-01 2.341470652e-03 1.649273528e-02 2.122272348e-03 1.656696699e-02 -9.943573156e-01 9.360387927e-02
1.700000e+09 -9.871621486e-01 1.248799388e-01 2.373728829e-03 1.661399789e-02 2.151609568e-03 1.668958347e-02 -9.942929964e-01 9.418153704e-02
1.710000e+09 -9.869999601e-01 1.256532867e-01 2.406315183e-03 1.673572264e-02 2.181252138e-03 1.681269268e-02 -9.942282331e-01 9.475974821e-02
1.720000e+09 -9.868364888e-01 1.264273225e-01 2.439232727e-03 1.685791440e-02 2.211203526e-03 1.693629988e-02 -9.941630197e-01 9.533852027e-02
1.730000e+09 -9.866717298e-01 1.272020550e-01 2.472484528e-03 1.698057815e-02 2.241467258e-03 1.706041037e-02 -9.940973501e-01 9.591786060e-02
1.740000e+09 -9.865056776e-01 1.279774932e-01 2.506073714e-03 1.710371890e-02 2.272046919e-03 1.718502949e-02 -9.940312181e-01 9.649777655e-02
1.750000e+09 -9.863383268e-01 1.287536463e-01 2.540003469e-03 1.722734175e-02 2.302946153e-03 1.731016262e-02 -9.939646175e-01 9.707827535e-02
1.760000e+09 -9.861696717e-01 1.295305236e-01 2.574277036e-03 1.735145185e-02 2.334168664e-03 1.743581522e-02 -9.938975419e-01 9.765936418e-02
1.770000e+09 -9.859997064e-01 1.303081346e-01 2.608897721e-03 1.747605443e-02 2.365718214e-03 1.756199275e-02 -9.938299849e-01 9.824105013e-02
1.780000e+09 -9.858284249e-01 1.310864890e-01 2.643868892e-03 1.760115478e-02 2.397598627e-03 1.768870075e-02 -9.937619402e-01 9.882334016e-02
1.790000e+09 -9.856558208e-01 1.318655966e-01 2.679193978e-03 1.772675824e-02 2.429813786e-03 1.781594478e-02 -9.936934013e-01 9.940624119e-02
1.800000e+09 -9.854818877e-01 1.326454672e-01 2.714876474e-03 1.785287023e-02 2.462367637e-03 1.794373046e-02 -9.936243616e-01 9.998976000e-02
1.810000e+09 -9.853066190e-01 1.334261110e-01 2.750919942e-03 1.797949623e-02 2.495264183e-03 1.807206345e-02 -9.935548146e-01 1.005739033e-01
1.820000e+09 -9.851300077e-01 1.342075381e-01 2.787328008e-03 1.810664176e-02 2.528507494e-03 1.820094944e-02 -9.934847538e-01 1.011586776e-01
1.830000e+09 -9.849520466e-01 1.349897588e-01 2.824104370e-03 1.823431242e-02 2.562101700e-03 1.833039417e-02 -9.934141725e-01 1.017440894e-01
1.840000e+09 -9.847727285e-01 1.357727835e-01 2.861252791e-03 1.836251387e-02 2.596050994e-03 1.846040344e-02 -9.933430641e-01 1.023301450e-01
1.850000e+09 -9.845920458e-01 1.365566227e-01 2.898777109e-03 1.849125182e-02 2.630359632e-03 1.859098305e-02 -9.932714219e-01 1.029168508e-01
1.860000e+09 -9.844099907e-01 1.373412869e-01 2.936681230e-03 1.862053203e-02 2.665031934e-03 1.872213888e-02 -9.931992393e-01 1.035042126e-01
1.870000e+09 -9.842265550e-01 1.381267868e-01 2.974969137e-03 1.875036032e-02 2.700072288e-03 1.885387683e-02 -9.931265096e-01 1.040922366e-01
1.880000e+09 -9.840417305e-01 1.389131329e-01 3.013644885e-03 1.888074256e-02 2.735485142e-03 1.898620283e-02 -9.930532261e-01 1.046809284e-01
1.890000e+09 -9.838555086e-01 1.397003361e-01 3.052712605e-03 1.901168469e-02 2.771275014e-03 1.911912287e-02 -9.929793822e-01 1.052702939e-01
1.900000e+09 -9.836678805e-01 1.404884071e-01 3.092176505e-03 1.914319267e-02 2.807446486e-03 1.925264295e-02 -9.929049711e-01 1.058603385e-01
1.910000e+09 -9.834788372e-01 1.412773568e-01 3.132040873e-03 1.927527254e-02 2.844004210e-03 1.938676913e-02 -9.928299863e-01 1.064510677e-01
1.920000e+09 -9.832883692e-01 1.420671958e-01 3.172310075e-03 1.940793037e-02 2.880952904e-03 1.952150750e-02 -9.927544211e-01 1.070424866e-01
1.930000e+09 -9.830964671e-01 1.428579351e-01 3.212988556e-03 1.954117228e-02 2.918297355e-03 1.965686417e-02 -9.926782688e-01 1.076346003e-01
1.940000e+09 -9.829031208e-01 1.436495854e-01 3.254080848e-03 1.967500443e-02 2.956042419e-03 1.979284530e-02 -9.926015228e-01 1.082274138e-01
1.950000e+09 -9.827083204e-01 1.444421577e-01 3.295591561e-03 1.980943303e-02 2.994193025e-03 1.992945706e-02 -9.925241766e-01 1.088209317e-01
1.960000e+09 -9.825120552e-01 1.452356625e-01 3.337525393e-03 1.994446433e-02 3.032754170e-03 2.006670569e-02 -9.924462236e-01 1.094151588e-01
1.970000e+09 -9.823143147e-01 1.460301108e-01 3.379887128e-03 2.008010462e-02 3.071730923e-03 2.020459743e-02 -9.923676573e-01 1.100100994e-01
1.980000e+09 -9.821150879e-01 1.468255131e-01 3.422681635e-03 2.021636022e-02 3.111128429e-03 2.034313854e-02 -9.922884713e-01 1.106057577e-01
1.990000e+09 -9.819143634e-01 1.476218802e-01 3.465913875e-03 2.035323751e-02 3.150951903e-03 2.048233534e-02 -9.922086590e-01 1.112021379e-01
2.000000e+09 -9.817121296e-01 1.484192225e-01 3.509588894e-03 2.049074288e-02 3.191206635e-03 2.062219417e-02 -9.921282141e-01 1.117992437e-01
2.010000e+09 -9.815083748e-01 1.492175507e-01 3.553711834e-03 2.062888276e-02 3.231897993e-03 2.076272136e-02 -9.920471304e-01 1.123970789e-01
2.020000e+09 -9.813030867e-01 1.500168750e-01 3.598287927e-03 2.076766362e-02 3.273031419e-03 2.090392332e-02 -9.919654014e-01 1.129956470e-01
2.030000e+09 -9.810962530e-01 1.508172057e-01 3.643322497e-03 2.090709194e-02 3.314612432e-03 2.104580645e-02 -9.918830211e-01 1.135949514e-01
2.040000e+09 -9.808878607e-01 1.516185531e-01 3.688820968e-03 2.104717425e-02 3.356646630e-03 2.118837717e-02 -9.917999832e-01 1.141949952e-01
2.050000e+09 -9.806778970e-01 1.524209271e-01 3.734788854e-03 2.118791710e-02 3.399139689e-03 2.133164194e-02 -9.917162816e-01 1.147957813e-01
2.060000e+09 -9.804663483e-01 1.532243377e-01 3.781231772e-03 2.132932704e-02 3.442097368e-03 2.147560722e-02 -9.916319105e-01 1.153973124e-01
2.070000e+09 -9.802532011e-01 1.540287947e-01 3.828155433e-03 2.147141067e-02 3.485525504e-03 2.162027951e-02 -9.915468638e-01 1.159995912e-01
2.080000e+09 -9.800384414e-01 1.548343076e-01 3.875565653e-03 2.161417459e-02 3.529430016e-03 2.176566532e-02 -9.914611358e-01 1.166026200e-01
2.090000e+09 -9.798220549e-01 1.556408859e-01 3.923468344e-03 2.175762544e-02 3.573816909e-03 2.191177117e-02 -9.913747206e-01 1.172064010e-01
2.100000e+09 -9.796040271e-01 1.564485388e-01 3.971869524e-03 2.190176985e-02 3.618692270e-03 2.205860359e-02 -9.912876126e-01 1.178109361e-01
2.110000e+09 -9.793843430e-01 1.572572754e-01 4.020775313e-03 2.204661448e-02 3.664062270e-03 2.220616915e-02 -9.911998062e-01 1.184162271e-01
2.120000e+09 -9.791629874e-01 1.580671045e-01 4.070191938e-03 2.219216599e-02 3.709933170e-03 2.235447440e-02 -9.911112960e-01 1.190222755e-01
2.130000e+09 -9.789399449e-01 1.588780347e-01 4.120125729e-03 2.233843106e-02 3.756311315e-03 2.250352592e-02 -9.910220766e-01 1.196290828e-01
2.140000e+09 -9.787151997e-01 1.596900746e-01 4.170583125e-03 2.248541637e-02 3.803203139e-03 2.265333030e-02 -9.909321427e-01 1.202366501e-01
2.150000e+09 -9.784887357e-01 1.605032321e-01 4.221570674e-03 2.263312860e-02 3.850615166e-03 2.280389413e-02 -9.908414892e-01 1.208449784e-01
2.160000e+09 -9.782605365e-01 1.613175154e-01 4.273095032e-03 2.278157444e-02 3.898554010e-03 2.295522401e-02 -9.907501110e-01 1.214540685e-01
2.170000e+09 -9.780305853e-01 1.621329320e-01 4.325162967e-03 2.293076058e-02 3.947026378e-03 2.310732655e-02 -9.906580033e-01 1.220639210e-01
2.180000e+09 -9.777988652e-01 1.629494893e-01 4.377781358e-03 2.308069371e-02 3.996039069e-03 2.326020836e-02 -9.905651612e-01 1.226745363e-01
2.190000e+09 -9.775653590e-01 1.637671946e-01 4.430957197e-03 2.323138051e-02 4.045598974e-03 2.341387606e-02 -9.904715801e-01 1.232859145e-01
2.200000e+09 -9.773300489e-01 1.645860546e-01 4.484697591e-03 2.338282765e-02 4.095713081e-03 2.356833626e-02 -9.903772555e-01 1.238980559e-01
2.210000e+09 -9.770929172e-01 1.654060760e-01 4.539009760e-03 2.353504181e-02 4.146388473e-03 2.372359557e-02 -9.902821829e-01 1.245109601e-01
2.220000e+09 -9.768539457e-01 1.662272649e-01 4.593901041e-03 2.368802965e-02 4.197632332e-03 2.387966062e-02 -9.901863582e-01 1.251246270e-01
2.230000e+09 -9.766131160e-01 1.670496274e-01 4.649378888e-03 2.384179781e-02 4.249451935e-03 2.403653801e-02 -9.900897772e-01 1.257390560e-01
2.240000e+09 -9.763704093e-01 1.678731692e-01 4.705450874e-03 2.399635293e-02 4.301854661e-03 2.419423436e-02 -9.899924359e-01 1.263542464e-01
2.250000e+09 -9.761258067e-01 1.686978955e-01 4.762124689e-03 2.415170162e-02 4.354847987e-03 2.435275626e-02 -9.898943307e-01 1.269701976e-01
2.260000e+09 -9.758792890e-01 1.695238114e-01 4.819408143e-03 2.430785049e-02 4.408439495e-03 2.451211033e-02 -9.897954577e-01 1.275869086e-01
2.270000e+09 -9.756308367e-01 1.703509215e-01 4.877309169e-03 2.446480611e-02 4.462636865e-03 2.467230316e-02 -9.896958136e-01 1.282043783e-01
2.280000e+09 -9.753804299e-01 1.711792303e-01 4.935835819e-03 2.462257505e-02 4.517447884e-03 2.483334132e-02 -9.895953949e-01 1.288226055e-01
2.290000e+09 -9.751280488e-01 1.720087417e-01 4.994996267e-03 2.478116385e-02 4.572880442e-03 2.499523141e-02 -9.894941986e-01 1.294415890e-01
2.300000e+09 -9.748736730e-01 1.728394593e-01 5.054798812e-03 2.494057902e-02 4.628942536e-03 2.515797999e-02 -9.893922217e-01 1.300613272e-01
2.310000e+09 -9.746172821e-01 1.736713866e-01 5.115251875e-03 2.510082704e-02 4.685642267e-03 2.532159361e-02 -9.892894614e-01 1.306818187e-01
2.320000e+09 -9.743588555e-01 1.745045265e-01 5.176364002e-03 2.526191439e-02 4.742987847e-03 2.548607883e-02 -9.891859150e-01 1.313030620e-01
2.330000e+09 -9.740983722e-01 1.753388816e-01 5.238143866e-03 2.542384749e-02 4.800987594e-03 2.565144219e-02 -9.890815800e-01 1.319250553e-01
2.340000e+09 -9.738358111e-01 1.761744543e-01 5.300600262e-03 2.558663275e-02 4.859649936e-03 2.581769021e-02 -9.889764543e-01 1.325477970e-01
2.350000e+09 -9.735711509e-01 1.770112465e-01 5.363742114e-03 2.575027655e-02 4.918983413e-03 2.598482942e-02 -9.888705357e-01 1.331712852e-01
2.360000e+09 -9.733043702e-01 1.778492598e-01 5.427578472e-03 2.591478523e-02 4.978996676e-03 2.615286630e-02 -9.887638224e-01 1.337955184e-01
2.370000e+09 -9.730354473e-01 1.786884956e-01 5.492118512e-03 2.608016511e-02 5.039698486e-03 2.632180737e-02 -9.886563125e-01 1.344204948e-01
2.380000e+09 -9.727643603e-01 1.795289546e-01 5.557371540e-03 2.624642247e-02 5.101097721e-03 2.649165911e-02 -9.885480048e-01 1.350462125e-01
2.390000e+09 -9.724910873e-01 1.803706377e-01 5.623346989e-03 2.641356357e-02 5.163203369e-03 2.666242798e-02 -9.884388977e-01 1.356726700e-01
2.400000e+09 -9.722156062e-01 1.812135451e-01 5.690054420e-03 2.658159464e-02 5.226024536e-03 2.683412046e-02 -9.883289902e-01 1.362998657e-01
2.410000e+09 -9.719378948e-01 1.820576768e-01 5.757503523e-03 2.675052186e-02 5.289570442e-03 2.700674299e-02 -9.882182815e-01 1.369277980e-01
2.420000e+09 -9.716579307e-01 1.829030325e-01 5.825704117e-03 2.692035140e-02 5.353850424e-03 2.718030204e-02 -9.881067706e-01 1.375564656e-01
2.430000e+09 -9.713756914e-01 1.837496116e-01 5.894666150e-03 2.709108940e-02 5.418873936e-03 2.735480405e-02 -9.879944572e-01 1.381858672e-01
2.440000e+09 -9.710911545e-01 1.845974133e-01 5.964399702e-03 2.726274196e-02 5.484650548e-03 2.753025545e-02 -9.878813409e-01 1.388160018e-01
2.450000e+09 -9.708042972e-01 1.854464365e-01 6.034914979e-03 2.743531517e-02 5.551189951e-03 2.770666269e-02 -9.877674215e-01 1.394468684e-01
2.460000e+09 -9.705150971e-01 1.862966799e-01 6.106222318e-03 2.760881508e-02 5.618501955e-03 2.788403221e-02 -9.876526992e-01 1.400784666e-01
2.470000e+09 -9.702235312e-01 1.871481418e-01 6.178332187e-03 2.778324775e-02 5.686596487e-03 2.806237046e-02 -9.875371741e-01 1.407107958e-01
2.480000e+09 -9.699295770e-01 1.880008206e-01 6.251255183e-03 2.795861917e-02 5.755483597e-03 2.824168389e-02 -9.874208467e-01 1.413438561e-01
2.490000e+09 -9.696332116e-01 1.888547143e-01 6.325002033e-03 2.813493537e-02 5.825173454e-03 2.842197897e-02 -9.873037177e-01 1.419776477e-01
2.500000e+09 -9.693344123e-01 1.897098207e-01 6.399583594e-03 2.831220233e-02 5.895676350e-03 2.860326218e-02 -9.871857878e-01 1.426121713e-01
2.510000e+09 -9.690331564e-01 1.905661377e-01 6.475010853e-03 2.849042604e-02 5.967002696e-03 2.878554003e-02 -9.870670580e-01 1.432474281e-01
2.520000e+09 -9.687294211e-01 1.914236631e-01 6.551294929e-03 2.866961247e-02 6.039163029e-03 2.896881903e-02 -9.869475294e-01 1.438834195e-01
2.530000e+09 -9.684231840e-01 1.922823943e-01 6.628447068e-03 2.884976762e-02 6.112168007e-03 2.915310575e-02 -9.868272035e-01 1.445201477e-01
2.540000e+09 -9.681144222e-01 1.931423289e-01 6.706478647e-03 2.903089747e-02 6.186028410e-03 2.933840679e-02 -9.867060816e-01 1.451576152e-01
2.550000e+09 -9.678031134e-01 1.940034647e-01 6.785401175e-03 2.921300802e-02 6.260755144e-03 2.952472878e-02 -9.865841653e-01 1.457958252e-01
2.560000e+09 -9.674892352e-01 1.948657991e-01 6.865226289e-03 2.939610529e-02 6.336359239e-03 2.971207841e-02 -9.864614564e-01 1.464347817e-01
2.570000e+09 -9.671727653e-01 1.957293300e-01 6.945965757e-03 2.958019534e-02 6.412851848e-03 2.990046243e-02 -9.863379568e-01 1.470744892e-01
2.580000e+09 -9.668536815e-01 1.965940551e-01 7.027631478e-03 2.976528425e-02 6.490244252e-03 3.008988767e-02 -9.862136685e-01 1.477149529e-01
2.590000e+09 -9.665319618e-01 1.974599724e-01 7.110235480e-03 2.995137813e-02 6.568547855e-03 3.028036101e-02 -9.860885934e-01 1.483561791e-01
2.600000e+09 -9.662075843e-01 1.983270802e-01 7.193789924e-03 3.013848317e-02 6.647774191e-03 3.047188943e-02 -9.859627338e-01 1.489981746e-01
2.610000e+09 -9.658805274e-01 1.991953769e-01 7.278307100e-03 3.032660560e-02 6.727934918e-03 3.066448001e-02 -9.858360919e-01 1.496409473e-01
2.620000e+09 -9.655507695e-01 2.000648612e-01 7.363799430e-03 3.051575173e-02 6.809041824e-03 3.085813994e-02 -9.857086699e-01 1.502845062e-01
2.630000e+09 -9.652182894e-01 2.009355325e-01 7.450279469e-03 3.070592794e-02 6.891106824e-03 3.105287654e-02 -9.855804701e-01 1.509288611e-01
2.640000e+09 -9.648830659e-01 2.018073901e-01 7.537759903e-03 3.089714073e-02 6.974141965e-03 3.124869723e-02 -9.854514947e-01 1.515740231e-01
2.650000e+09 -9.645450782e-01 2.026804342e-01 7.626253554e-03 3.108939668e-02 7.058159425e-03 3.144560962e-02 -9.853217460e-01 1.522200042e-01
2.660000e+09 -9.642043056e-01 2.035546655e-01 7.715773376e-03 3.128270250e-02 7.143171511e-03 3.164362145e-02 -9.851912262e-01 1.528668179e-01
2.670000e+09 -9.638607277e-01 2.044300850e-01 7.806332459e-03 3.147706502e-02 7.229190666e-03 3.184274067e-02 -9.850599373e-01 1.535144788e-01
2.680000e+09 -9.635143242e-01 2.053066948e-01 7.897944031e-03 3.167249124e-02 7.316229469e-03 3.204297539e-02 -9.849278812e-01 1.541630030e-01
2.690000e+09 -9.631650754e-01 2.061844974e-01 7.990621457e-03 3.186898831e-02 7.404300635e-03 3.224433397e-02 -9.847950598e-01 1.548124078e-01
2.700000e+09 -9.628129613e-01 2.070634962e-01 8.084378243e-03 3.206656354e-02 7.493417017e-03 3.244682497e-02 -9.846614747e-01 1.554627124e-01
2.710000e+09 -9.624579627e-01 2.079436957e-01 8.179228037e-03 3.226522448e-02 7.583591612e-03 3.265045722e-02 -9.845271272e-01 1.561139370e-01
2.720000e+09 -9.621000603e-01 2.088251011e-01 8.275184632e-03 3.246497884e-02 7.674837560e-03 3.285523982e-02 -9.843920184e-01 1.567661039e-01
2.730000e+09 -9.617392352e-01 2.097077188e-01 8.372261967e-03 3.266583461e-02 7.767168149e-03 3.306118216e-02 -9.842561491e-01 1.574192368e-01
2.740000e+09 -9.613754685e-01 2.105915560e-01 8.470474134e-03 3.286779999e-02 7.860596817e-03 3.326829394e-02 -9.841195195e-01 1.580733613e-01
2.750000e+09 -9.610087418e-01 2.114766216e-01 8.569835378e-03 3.307088347e-02 7.955137159e-03 3.347658520e-02 -9.839821296e-01 1.587285047e-01
2.760000e+09 -9.606390369e-01 2.123629253e-01 8.670360100e-03 3.327509383e-02 8.050802928e-03 3.368606635e-02 -9.838439789e-01 1.593846963e-01
2.770000e+09 -9.602663355e-01 2.132504785e-01 8.772062865e-03 3.348044016e-02 8.147608044e-03 3.389674819e-02 -9.837050662e-01 1.600419673e-01
2.780000e+09 -9.598906197e-01 2.141392937e-01 8.874958406e-03 3.368693186e-02 8.245566595e-03 3.410864193e-02 -9.835653897e-01 1.607003509e-01
2.790000e+09 -9.595118718e-01 2.150293851e-01 8.979061627e-03 3.389457872e-02 8.344692846e-03 3.432175923e-02 -9.834249469e-01 1.613598824e-01
2.800000e+09 -9.591300741e-01 2.159207685e-01 9.084387611e-03 3.410339088e-02 8.445001248e-03 3.453611220e-02 -9.832837347e-01 1.620205991e-01
2.810000e+09 -9.587452089e-01 2.168134613e-01 9.190951625e-03 3.431337889e-02 8.546506443e-03 3.475171348e-02 -9.831417490e-01 1.626825406e-01
2.820000e+09 -9.583572588e-01 2.177074826e-01 9.298769131e-03 3.452455372e-02 8.649223273e-03 3.496857622e-02 -9.829989847e-01 1.633457487e-01
2.830000e+09 -9.579662062e-01 2.186028534e-01 9.407855789e-03 3.473692679e-02 8.753166791e-03 3.518671414e-02 -9.828554358e-01 1.640102674e-01
2.840000e+09 -9.575720335e-01 2.194995967e-01 9.518227467e-03 3.495050999e-02 8.858352273e-03 3.540614154e-02 -9.827110952e-01 1.646761431e-01
2.850000e+09 -9.571747231e-01 2.203977372e-01 9.629900255e-03 3.516531570e-02 8.964795225e-03 3.562687337e-02 -9.825659544e-01 1.653434244e-01
2.860000e+09 -9.567742571e-01 2.212973018e-01 9.742890469e-03 3.538135682e-02 9.072511403e-03 3.584892521e-02 -9.824200039e-01 1.660121624e-01
2.870000e+09 -9.563706175e-01 2.221983194e-01 9.857214663e-03 3.559864681e-02 9.181516823e-03 3.607231335e-02 -9.822732324e-01 1.666824105e-01
2.880000e+09 -9.559637859e-01 2.231008212e-01 9.972889648e-03 3.581719966e-02 9.291827776e-03 3.629705479e-02 -9.821256274e-01 1.673542245e-01
2.890000e+09 -9.555537438e-01 2.240048406e-01 1.008993249e-02 3.603702999e-02 9.403460849e-03 3.652316730e-02 -9.819771746e-01 1.680276625e-01
2.900000e+09 -9.551404718e-01 2.249104131e-01 1.020836055e-02 3.625815299e-02 9.516432943e-03 3.675066943e-02 -9.818278578e-01 1.687027851e-01
2.910000e+09 -9.547239504e-01 2.258175766e-01 1.032819147e-02 3.648058453e-02 9.630761291e-03 3.697958057e-02 -9.816776590e-01 1.693796554e-01
2.920000e+09 -9.543041591e-01 2.267263714e-01 1.044944319e-02 3.670434111e-02 9.746463483e-03 3.720992095e-02 -9.815265583e-01 1.700583385e-01
2.930000e+09 -9.538810768e-01 2.276368400e-01 1.057213401e-02 3.692943989e-02 9.863557489e-03 3.744171171e-02 -9.813745333e-01 1.707389020e-01
2.940000e+09 -9.534546817e-01 2.285490276e-01 1.069628255e-02 3.715589876e-02 9.982061689e-03 3.767497489e-02 -9.812215595e-01 1.714214156e-01
2.950000e+09 -9.530249508e-01 2.294629814e-01 1.082190779e-02 3.738373629e-02 1.010199490e-02 3.790973352e-02 -9.810676099e-01 1.721059515e-01
2.960000e+09 -9.525918600e-01 2.303787512e-01 1.094902911e-02 3.761297180e-02 1.022337639e-02 3.814601158e-02 -9.809126547e-01 1.727925834e-01
2.970000e+09 -9.521553839e-01 2.312963891e-01 1.107766630e-02 3.784362534e-02 1.034622595e-02 3.838383408e-02 -9.807566615e-01 1.734813876e-01
2.980000e+09 -9.517154959e-01 2.322159496e-01 1.120783957e-02 3.807571770e-02 1.047056390e-02 3.862322707e-02 -9.805995946e-01 1.741724418e-01
2.990000e+09 -9.512721676e-01 2.331374894e-01 1.133956957e-02 3.830927045e-02 1.059641114e-02 3.886421766e-02 -9.804414156e-01 1.748658254e-01
3.000000e+09 -9.508253690e-01 2.340610674e-01 1.147287747e-02 3.854430591e-02 1.072378916e-02 3.910683405e-02 -9.802820825e-01 1.755616197e-01
