! rfsim (KiCad + openEMS)
# HZ S RI R 50
5.000000e+08 -3.615632926e+00 7.579410359e-01 -1.057857088e-02 6.727016452e-03 0.000000000e+00 0.000000000e+00 0.000000000e+00 0.000000000e+00
5.100000e+08 -3.608937421e+00 7.715735523e-01 -1.051913236e-02 6.848007724e-03 0.000000000e+00 0.000000000e+00 0.000000000e+00 0.000000000e+00
5.200000e+08 -3.602135714e+00 7.851215250e-01 -1.045875106e-02 6.968248499e-03 0.000000000e+00 0.000000000e+00 0.000000000e+00 0.000000000e+00
5.300000e+08 -3.595229197e+00 7.985838590e-01 -1.039743932e-02 7.087729057e-03 0.000000000e+00 0.000000000e+00 0.000000000e+00 0.000000000e+00
5.400000e+08 -3.588219274e+00 8.119594874e-01 -1.033520961e-02 7.206439928e-03 0.000000000e+00 0.000000000e+00 0.000000000e+00 0.000000000e+00
5.500000e+08 -3.581107363e+00 8.252473714e-01 -1.027207452e-02 7.324371890e-03 0.000000000e+00 0.000000000e+00 0.000000000e+00 0.000000000e+00
5.600000e+08 -3.573894892e+00 8.384465004e-01 -1.020804671e-02 7.441515972e-03 0.000000000e+00 0.000000000e+00 0.000000000e+00 0.000000000e+00
5.700000e+08 -3.566583300e+00 8.515558920e-01 -1.014313897e-02 7.557863454e-03 0.000000000e+00 0.000000000e+00 0.000000000e+00 0.000000000e+00
5.800000e+08 -3.559174035e+00 8.645745922e-01 -1.007736417e-02 7.673405867e-03 0.000000000e+00 0.000000000e+00 0.000000000e+00 0.000000000e+00
5.900000e+08 -3.551668558e+00 8.775016755e-01 -1.001073525e-02 7.788134995e-03 0.000000000e+00 0.000000000e+00 0.000000000e+00 0.000000000e+00
6.000000e+08 -3.544068336e+00 8.903362448e-01 -9.943265242e-03 7.902042873e-03 0.000000000e+00 0.000000000e+00 0.000000000e+00 0.000000000e+00
6.100000e+08 -3.536374845e+00 9.030774313e-01 -9.874967256e-03 8.015121793e-03 0.000000000e+00 0.000000000e+00 0.000000000e+00 0.000000000e+00
6.200000e+08 -3.528589568e+00 9.157243949e-01 -9.805854459e-03 8.127364294e-03 0.000000000e+00 0.000000000e+00 0.000000000e+00 0.000000000e+00
6.300000e+08 -3.520713997e+00 9.282763239e-01 -9.735940087e-03 8.238763173e-03 0.000000000e+00 0.000000000e+00 0.000000000e+00 0.000000000e+00
6.400000e+08 -3.512749628e+00 9.407324352e-01 -9.665237428e-03 8.349311475e-03 0.000000000e+00 0.000000000e+00 0.000000000e+00 0.000000000e+00
6.500000e+08 -3.504697965e+00 9.530919737e-01 -9.593759824e-03 8.459002502e-03 0.000000000e+00 0.000000000e+00 0.000000000e+00 0.000000000e+00
6.600000e+08 -3.496560514e+00 9.653542132e-01 -9.521520662e-03 8.567829803e-03 0.000000000e+00 0.000000000e+00 0.000000000e+00 0.000000000e+00
6.700000e+08 -3.488338790e+00 9.775184553e-01 -9.448533368e-03 8.675787182e-03 0.000000000e+00 0.000000000e+00 0.000000000e+00 0.000000000e+00
6.800000e+08 -3.480034307e+00 9.895840302e-01 -9.374811402e-03 8.782868691e-03 0.000000000e+00 0.000000000e+00 0.000000000e+00 0.000000000e+00
6.900000e+08 -3.471648585e+00 1.001550296e+00 -9.300368257e-03 8.889068633e-03 0.000000000e+00 0.000000000e+00 0.000000000e+00 0.000000000e+00
7.000000e+08 -3.463183148e+00 1.013416639e+00 -9.225217445e-03 8.994381559e-03 0.000000000e+00 0.000000000e+00 0.000000000e+00 0.000000000e+00
7.100000e+08 -3.454639518e+00 1.025182473e+00 -9.149372501e-03 9.098802266e-03 0.000000000e+00 0.000000000e+00 0.000000000e+00 0.000000000e+00
7.200000e+08 -3.446019223e+00 1.036847239e+00 -9.072846972e-03 9.202325800e-03 0.000000000e+00 0.000000000e+00 0.000000000e+00 0.000000000e+00
7.300000e+08 -3.437323790e+00 1.048410408e+00 -8.995654413e-03 9.304947449e-03 0.000000000e+00 0.000000000e+00 0.000000000e+00 0.000000000e+00
7.400000e+08 -3.428554745e+00 1.059871476e+00 -8.917808383e-03 9.406662747e-03 0.000000000e+00 0.000000000e+00 0.000000000e+00 0.000000000e+00
7.500000e+08 -3.419713616e+00 1.071229966e+00 -8.839322442e-03 9.507467469e-03 0.000000000e+00 0.000000000e+00 0.000000000e+00 0.000000000e+00
7.600000e+08 -3.410801929e+00 1.082485430e+00 -8.760210140e-03 9.607357628e-03 0.000000000e+00 0.000000000e+00 0.000000000e+00 0.000000000e+00
7.700000e+08 -3.401821211e+00 1.093637446e+00 -8.680485020e-03 9.706329477e-03 0.000000000e+00 0.000000000e+00 0.000000000e+00 0.000000000e+00
7.800000e+08 -3.392772984e+00 1.104685619e+00 -8.600160607e-03 9.804379508e-03 0.000000000e+00 0.000000000e+00 0.000000000e+00 0.000000000e+00
7.900000e+08 -3.383658769e+00 1.115629578e+00 -8.519250407e-03 9.901504444e-03 0.000000000e+00 0.000000000e+00 0.000000000e+00 0.000000000e+00
8.000000e+08 -3.374480086e+00 1.126468982e+00 -8.437767901e-03 9.997701241e-03 0.000000000e+00 0.000000000e+00 0.000000000e+00 0.000000000e+00
8.100000e+08 -3.365238450e+00 1.137203514e+00 -8.355726541e-03 1.009296709e-02 0.000000000e+00 0.000000000e+00 0.000000000e+00 0.000000000e+00
8.200000e+08 -3.355935372e+00 1.147832882e+00 -8.273139746e-03 1.018729940e-02 0.000000000e+00 0.000000000e+00 0.000000000e+00 0.000000000e+00
8.300000e+08 -3.346572359e+00 1.158356820e+00 -8.190020897e-03 1.028069581e-02 0.000000000e+00 0.000000000e+00 0.000000000e+00 0.000000000e+00
8.400000e+08 -3.337150915e+00 1.168775089e+00 -8.106383333e-03 1.037315420e-02 0.000000000e+00 0.000000000e+00 0.000000000e+00 0.000000000e+00
8.500000e+08 -3.327672536e+00 1.179087472e+00 -8.022240349e-03 1.046467264e-02 0.000000000e+00 0.000000000e+00 0.000000000e+00 0.000000000e+00
8.600000e+08 -3.318138715e+00 1.189293777e+00 -7.937605188e-03 1.055524943e-02 0.000000000e+00 0.000000000e+00 0.000000000e+00 0.000000000e+00
8.700000e+08 -3.308550937e+00 1.199393840e+00 -7.852491040e-03 1.064488311e-02 0.000000000e+00 0.000000000e+00 0.000000000e+00 0.000000000e+00
8.800000e+08 -3.298910682e+00 1.209387516e+00 -7.766911039e-03 1.073357240e-02 0.000000000e+00 0.000000000e+00 0.000000000e+00 0.000000000e+00
8.900000e+08 -3.289219421e+00 1.219274686e+00 -7.680878257e-03 1.082131624e-02 0.000000000e+00 0.000000000e+00 0.000000000e+00 0.000000000e+00
9.000000e+08 -3.279478622e+00 1.229055255e+00 -7.594405701e-03 1.090811378e-02 0.000000000e+00 0.000000000e+00 0.000000000e+00 0.000000000e+00
9.100000e+08 -3.269689740e+00 1.238729150e+00 -7.507506310e-03 1.099396438e-02 0.000000000e+00 0.000000000e+00 0.000000000e+00 0.000000000e+00
9.200000e+08 -3.259854225e+00 1.248296322e+00 -7.420192952e-03 1.107886760e-02 0.000000000e+00 0.000000000e+00 0.000000000e+00 0.000000000e+00
9.300000e+08 -3.249973519e+00 1.257756742e+00 -7.332478421e-03 1.116282320e-02 0.000000000e+00 0.000000000e+00 0.000000000e+00 0.000000000e+00
9.400000e+08 -3.240049053e+00 1.267110405e+00 -7.244375432e-03 1.124583112e-02 0.000000000e+00 0.000000000e+00 0.000000000e+00 0.000000000e+00
9.500000e+08 -3.230082252e+00 1.276357328e+00 -7.155896619e-03 1.132789150e-02 0.000000000e+00 0.000000000e+00 0.000000000e+00 0.000000000e+00
9.600000e+08 -3.220074528e+00 1.285497548e+00 -7.067054532e-03 1.140900469e-02 0.000000000e+00 0.000000000e+00 0.000000000e+00 0.000000000e+00
9.700000e+08 -3.210027285e+00 1.294531124e+00 -6.977861634e-03 1.148917121e-02 0.000000000e+00 0.000000000e+00 0.000000000e+00 0.000000000e+00
9.800000e+08 -3.199941918e+00 1.303458135e+00 -6.888330300e-03 1.156839175e-02 0.000000000e+00 0.000000000e+00 0.000000000e+00 0.000000000e+00
9.900000e+08 -3.189819810e+00 1.312278681e+00 -6.798472812e-03 1.164666721e-02 0.000000000e+00 0.000000000e+00 0.000000000e+00 0.000000000e+00
1.000000e+09 -3.179662333e+00 1.320992881e+00 -6.708301354e-03 1.172399864e-02 0.000000000e+00 0.000000000e+00 0.000000000e+00 0.000000000e+00
1.010000e+09 -3.169470850e+00 1.329600874e+00 -6.617828017e-03 1.180038728e-02 0.000000000e+00 0.000000000e+00 0.000000000e+00 0.000000000e+00
1.020000e+09 -3.159246710e+00 1.338102819e+00 -6.527064790e-03 1.187583454e-02 0.000000000e+00 0.000000000e+00 0.000000000e+00 0.000000000e+00
1.030000e+09 -3.148991253e+00 1.346498893e+00 -6.436023561e-03 1.195034199e-02 0.000000000e+00 0.000000000e+00 0.000000000e+00 0.000000000e+00
1.040000e+09 -3.138705807e+00 1.354789292e+00 -6.344716111e-03 1.202391136e-02 0.000000000e+00 0.000000000e+00 0.000000000e+00 0.000000000e+00
1.050000e+09 -3.128391685e+00 1.362974229e+00 -6.253154119e-03 1.209654456e-02 0.000000000e+00 0.000000000e+00 0.000000000e+00 0.000000000e+00
1.060000e+09 -3.118050192e+00 1.371053936e+00 -6.161349151e-03 1.216824363e-02 0.000000000e+00 0.000000000e+00 0.000000000e+00 0.000000000e+00
1.070000e+09 -3.107682619e+00 1.379028662e+00 -6.069312666e-03 1.223901080e-02 0.000000000e+00 0.000000000e+00 0.000000000e+00 0.000000000e+00
1.080000e+09 -3.097290242e+00 1.386898672e+00 -5.977056009e-03 1.230884840e-02 0.000000000e+00 0.000000000e+00 0.000000000e+00 0.000000000e+00
1.090000e+09 -3.086874328e+00 1.394664248e+00 -5.884590412e-03 1.237775897e-02 0.000000000e+00 0.000000000e+00 0.000000000e+00 0.000000000e+00
1.100000e+09 -3.076436128e+00 1.402325690e+00 -5.791926992e-03 1.244574513e-02 0.000000000e+00 0.000000000e+00 0.000000000e+00 0.000000000e+00
1.110000e+09 -3.065976881e+00 1.409883312e+00 -5.699076747e-03 1.251280969e-02 0.000000000e+00 0.000000000e+00 0.000000000e+00 0.000000000e+00
1.120000e+09 -3.055497814e+00 1.417337443e+00 -5.606050559e-03 1.257895558e-02 0.000000000e+00 0.000000000e+00 0.000000000e+00 0.000000000e+00
1.130000e+09 -3.045000138e+00 1.424688429e+00 -5.512859187e-03 1.264418585e-02 0.000000000e+00 0.000000000e+00 0.000000000e+00 0.000000000e+00
1.140000e+09 -3.034485051e+00 1.431936628e+00 -5.419513271e-03 1.270850370e-02 0.000000000e+00 0.000000000e+00 0.000000000e+00 0.000000000e+00
1.150000e+09 -3.023953739e+00 1.439082416e+00 -5.326023329e-03 1.277191244e-02 0.000000000e+00 0.000000000e+00 0.000000000e+00 0.000000000e+00
1.160000e+09 -3.013407371e+00 1.446126180e+00 -5.232399754e-03 1.283441553e-02 0.000000000e+00 0.000000000e+00 0.000000000e+00 0.000000000e+00
1.170000e+09 -3.002847106e+00 1.453068321e+00 -5.138652814e-03 1.289601652e-02 0.000000000e+00 0.000000000e+00 0.000000000e+00 0.000000000e+00
1.180000e+09 -2.992274085e+00 1.459909254e+00 -5.044792653e-03 1.295671910e-02 0.000000000e+00 0.000000000e+00 0.000000000e+00 0.000000000e+00
1.190000e+09 -2.981689436e+00 1.466649407e+00 -4.950829289e-03 1.301652706e-02 0.000000000e+00 0.000000000e+00 0.000000000e+00 0.000000000e+00
1.200000e+09 -2.971094274e+00 1.473289219e+00 -4.856772610e-03 1.307544432e-02 0.000000000e+00 0.000000000e+00 0.000000000e+00 0.000000000e+00
1.210000e+09 -2.960489699e+00 1.479829144e+00 -4.762632379e-03 1.313347487e-02 0.000000000e+00 0.000000000e+00 0.000000000e+00 0.000000000e+00
1.220000e+09 -2.949876795e+00 1.486269644e+00 -4.668418229e-03 1.319062285e-02 0.000000000e+00 0.000000000e+00 0.000000000e+00 0.000000000e+00
1.230000e+09 -2.939256633e+00 1.492611195e+00 -4.574139663e-03 1.324689247e-02 0.000000000e+00 0.000000000e+00 0.000000000e+00 0.000000000e+00
1.240000e+09 -2.928630268e+00 1.498854284e+00 -4.479806056e-03 1.330228804e-02 0.000000000e+00 0.000000000e+00 0.000000000e+00 0.000000000e+00
1.250000e+09 -2.917998743e+00 1.504999407e+00 -4.385426653e-03 1.335681398e-02 0.000000000e+00 0.000000000e+00 0.000000000e+00 0.000000000e+00
1.260000e+09 -2.907363083e+00 1.511047072e+00 -4.291010566e-03 1.341047480e-02 0.000000000e+00 0.000000000e+00 0.000000000e+00 0.000000000e+00
1.270000e+09 -2.896724302e+00 1.516997795e+00 -4.196566779e-03 1.346327509e-02 0.000000000e+00 0.000000000e+00 0.000000000e+00 0.000000000e+00
1.280000e+09 -2.886083394e+00 1.522852105e+00 -4.102104144e-03 1.351521952e-02 0.000000000e+00 0.000000000e+00 0.000000000e+00 0.000000000e+00
1.290000e+09 -2.875441344e+00 1.528610537e+00 -4.007631381e-03 1.356631285e-02 0.000000000e+00 0.000000000e+00 0.000000000e+00 0.000000000e+00
1.300000e+09 -2.864799118e+00 1.534273636e+00 -3.913157080e-03 1.361655993e-02 0.000000000e+00 0.000000000e+00 0.000000000e+00 0.000000000e+00
1.310000e+09 -2.854157670e+00 1.539841956e+00 -3.818689698e-03 1.366596566e-02 0.000000000e+00 0.000000000e+00 0.000000000e+00 0.000000000e+00
1.320000e+09 -2.843517936e+00 1.545316060e+00 -3.724237563e-03 1.371453505e-02 0.000000000e+00 0.000000000e+00 0.000000000e+00 0.000000000e+00
1.330000e+09 -2.832880841e+00 1.550696517e+00 -3.629808870e-03 1.376227316e-02 0.000000000e+00 0.000000000e+00 0.000000000e+00 0.000000000e+00
1.340000e+09 -2.822247293e+00 1.555983906e+00 -3.535411684e-03 1.380918510e-02 0.000000000e+00 0.000000000e+00 0.000000000e+00 0.000000000e+00
1.350000e+09 -2.811618185e+00 1.561178810e+00 -3.441053937e-03 1.385527608e-02 0.000000000e+00 0.000000000e+00 0.000000000e+00 0.000000000e+00
1.360000e+09 -2.800994396e+00 1.566281824e+00 -3.346743432e-03 1.390055135e-02 0.000000000e+00 0.000000000e+00 0.000000000e+00 0.000000000e+00
1.370000e+09 -2.790376791e+00 1.571293545e+00 -3.252487842e-03 1.394501623e-02 0.000000000e+00 0.000000000e+00 0.000000000e+00 0.000000000e+00
1.380000e+09 -2.779766218e+00 1.576214578e+00 -3.158294709e-03 1.398867609e-02 0.000000000e+00 0.000000000e+00 0.000000000e+00 0.000000000e+00
1.390000e+09 -2.769163514e+00 1.581045535e+00 -3.064171444e-03 1.403153636e-02 0.000000000e+00 0.000000000e+00 0.000000000e+00 0.000000000e+00
1.400000e+09 -2.758569498e+00 1.585787033e+00 -2.970125333e-03 1.407360251e-02 0.000000000e+00 0.000000000e+00 0.000000000e+00 0.000000000e+00
1.410000e+09 -2.747984976e+00 1.590439695e+00 -2.876163528e-03 1.411488008e-02 0.000000000e+00 0.000000000e+00 0.000000000e+00 0.000000000e+00
1.420000e+09 -2.737410739e+00 1.595004149e+00 -2.782293056e-03 1.415537464e-02 0.000000000e+00 0.000000000e+00 0.000000000e+00 0.000000000e+00
1.430000e+09 -2.726847566e+00 1.599481027e+00 -2.688520816e-03 1.419509180e-02 0.000000000e+00 0.000000000e+00 0.000000000e+00 0.000000000e+00
1.440000e+09 -2.716296217e+00 1.603870967e+00 -2.594853578e-03 1.423403723e-02 0.000000000e+00 0.000000000e+00 0.000000000e+00 0.000000000e+00
1.450000e+09 -2.705757443e+00 1.608174611e+00 -2.501297988e-03 1.427221663e-02 0.000000000e+00 0.000000000e+00 0.000000000e+00 0.000000000e+00
1.460000e+09 -2.695231977e+00 1.612392605e+00 -2.407860564e-03 1.430963572e-02 0.000000000e+00 0.000000000e+00 0.000000000e+00 0.000000000e+00
1.470000e+09 -2.684720539e+00 1.616525599e+00 -2.314547701e-03 1.434630029e-02 0.000000000e+00 0.000000000e+00 0.000000000e+00 0.000000000e+00
1.480000e+09 -2.674223835e+00 1.620574247e+00 -2.221365669e-03 1.438221612e-02 0.000000000e+00 0.000000000e+00 0.000000000e+00 0.000000000e+00
1.490000e+09 -2.663742559e+00 1.624539205e+00 -2.128320613e-03 1.441738906e-02 0.000000000e+00 0.000000000e+00 0.000000000e+00 0.000000000e+00
1.500000e+09 -2.653277388e+00 1.628421133e+00 -2.035418557e-03 1.445182496e-02 0.000000000e+00 0.000000000e+00 0.000000000e+00 0.000000000e+00
1.510000e+09 -2.642828987e+00 1.632220695e+00 -1.942665402e-03 1.448552970e-02 0.000000000e+00 0.000000000e+00 0.000000000e+00 0.000000000e+00
1.520000e+09 -2.632398007e+00 1.635938555e+00 -1.850066929e-03 1.451850920e-02 0.000000000e+00 0.000000000e+00 0.000000000e+00 0.000000000e+00
1.530000e+09 -2.621985087e+00 1.639575382e+00 -1.757628799e-03 1.455076938e-02 0.000000000e+00 0.000000000e+00 0.000000000e+00 0.000000000e+00
1.540000e+09 -2.611590849e+00 1.643131846e+00 -1.665356553e-03 1.458231619e-02 0.000000000e+00 0.000000000e+00 0.000000000e+00 0.000000000e+00
1.550000e+09 -2.601215905e+00 1.646608619e+00 -1.573255613e-03 1.461315560e-02 0.000000000e+00 0.000000000e+00 0.000000000e+00 0.000000000e+00
1.560000e+09 -2.590860853e+00 1.650006373e+00 -1.481331287e-03 1.464329358e-02 0.000000000e+00 0.000000000e+00 0.000000000e+00 0.000000000e+00
1.570000e+09 -2.580526276e+00 1.653325786e+00 -1.389588763e-03 1.467273613e-02 0.000000000e+00 0.000000000e+00 0.000000000e+00 0.000000000e+00
1.580000e+09 -2.570212748e+00 1.656567532e+00 -1.298033116e-03 1.470148926e-02 0.000000000e+00 0.000000000e+00 0.000000000e+00 0.000000000e+00
1.590000e+09 -2.559920826e+00 1.659732290e+00 -1.206669307e-03 1.472955897e-02 0.000000000e+00 0.000000000e+00 0.000000000e+00 0.000000000e+00
1.600000e+09 -2.549651056e+00 1.662820737e+00 -1.115502183e-03 1.475695130e-02 0.000000000e+00 0.000000000e+00 0.000000000e+00 0.000000000e+00
1.610000e+09 -2.539403972e+00 1.665833554e+00 -1.024536478e-03 1.478367227e-02 0.000000000e+00 0.000000000e+00 0.000000000e+00 0.000000000e+00
1.620000e+09 -2.529180094e+00 1.668771419e+00 -9.337768179e-04 1.480972791e-02 0.000000000e+00 0.000000000e+00 0.000000000e+00 0.000000000e+00
1.630000e+09 -2.518979932e+00 1.671635013e+00 -8.432277168e-04 1.483512426e-02 0.000000000e+00 0.000000000e+00 0.000000000e+00 0.000000000e+00
1.640000e+09 -2.508803981e+00 1.674425016e+00 -7.528935805e-04 1.485986735e-02 0.000000000e+00 0.000000000e+00 0.000000000e+00 0.000000000e+00
1.650000e+09 -2.498652725e+00 1.677142107e+00 -6.627787075e-04 1.488396323e-02 0.000000000e+00 0.000000000e+00 0.000000000e+00 0.000000000e+00
1.660000e+09 -2.488526638e+00 1.679786966e+00 -5.728872899e-04 1.490741792e-02 0.000000000e+00 0.000000000e+00 0.000000000e+00 0.000000000e+00
1.670000e+09 -2.478426178e+00 1.682360272e+00 -4.832234145e-04 1.493023745e-02 0.000000000e+00 0.000000000e+00 0.000000000e+00 0.000000000e+00
1.680000e+09 -2.468351795e+00 1.684862705e+00 -3.937910641e-04 1.495242786e-02 0.000000000e+00 0.000000000e+00 0.000000000e+00 0.000000000e+00
1.690000e+09 -2.458303926e+00 1.687294942e+00 -3.045941189e-04 1.497399515e-02 0.000000000e+00 0.000000000e+00 0.000000000e+00 0.000000000e+00
1.700000e+09 -2.448282997e+00 1.689657661e+00 -2.156363572e-04 1.499494534e-02 0.000000000e+00 0.000000000e+00 0.000000000e+00 0.000000000e+00
1.710000e+09 -2.438289420e+00 1.691951537e+00 -1.269214570e-04 1.501528444e-02 0.000000000e+00 0.000000000e+00 0.000000000e+00 0.000000000e+00
1.720000e+09 -2.428323601e+00 1.694177245e+00 -3.845299712e-05 1.503501843e-02 0.000000000e+00 0.000000000e+00 0.000000000e+00 0.000000000e+00
1.730000e+09 -2.418385930e+00 1.696335460e+00 4.976554163e-05 1.505415329e-02 0.000000000e+00 0.000000000e+00 0.000000000e+00 0.000000000e+00
1.740000e+09 -2.408476789e+00 1.698426852e+00 1.377307752e-04 1.507269499e-02 0.000000000e+00 0.000000000e+00 0.000000000e+00 0.000000000e+00
1.750000e+09 -2.398596549e+00 1.700452093e+00 2.254394152e-04 1.509064948e-02 0.000000000e+00 0.000000000e+00 0.000000000e+00 0.000000000e+00
1.760000e+09 -2.388745568e+00 1.702411852e+00 3.128882672e-04 1.510802270e-02 0.000000000e+00 0.000000000e+00 0.000000000e+00 0.000000000e+00
1.770000e+09 -2.378924197e+00 1.704306795e+00 4.000742302e-04 1.512482057e-02 0.000000000e+00 0.000000000e+00 0.000000000e+00 0.000000000e+00
1.780000e+09 -2.369132775e+00 1.706137587e+00 4.869942949e-04 1.514104899e-02 0.000000000e+00 0.000000000e+00 0.000000000e+00 0.000000000e+00
1.790000e+09 -2.359371629e+00 1.707904891e+00 5.736455425e-04 1.515671384e-02 0.000000000e+00 0.000000000e+00 0.000000000e+00 0.000000000e+00
1.800000e+09 -2.349641079e+00 1.709609368e+00 6.600251436e-04 1.517182099e-02 0.000000000e+00 0.000000000e+00 0.000000000e+00 0.000000000e+00
1.810000e+09 -2.339941434e+00 1.711251676e+00 7.461303570e-04 1.518637629e-02 0.000000000e+00 0.000000000e+00 0.000000000e+00 0.000000000e+00
1.820000e+09 -2.330272992e+00 1.712832470e+00 8.319585282e-04 1.520038554e-02 0.000000000e+00 0.000000000e+00 0.000000000e+00 0.000000000e+00
1.830000e+09 -2.320636043e+00 1.714352405e+00 9.175070884e-04 1.521385457e-02 0.000000000e+00 0.000000000e+00 0.000000000e+00 0.000000000e+00
1.840000e+09 -2.311030867e+00 1.715812131e+00 1.002773553e-03 1.522678913e-02 0.000000000e+00 0.000000000e+00 0.000000000e+00 0.000000000e+00
1.850000e+09 -2.301457734e+00 1.717212295e+00 1.087755521e-03 1.523919498e-02 0.000000000e+00 0.000000000e+00 0.000000000e+00 0.000000000e+00
1.860000e+09 -2.291916906e+00 1.718553543e+00 1.172450673e-03 1.525107785e-02 0.000000000e+00 0.000000000e+00 0.000000000e+00 0.000000000e+00
1.870000e+09 -2.282408633e+00 1.719836516e+00 1.256856770e-03 1.526244343e-02 0.000000000e+00 0.000000000e+00 0.000000000e+00 0.000000000e+00
1.880000e+09 -2.272933161e+00 1.721061855e+00 1.340971654e-03 1.527329741e-02 0.000000000e+00 0.000000000e+00 0.000000000e+00 0.000000000e+00
1.890000e+09 -2.263490722e+00 1.722230195e+00 1.424793242e-03 1.528364543e-02 0.000000000e+00 0.000000000e+00 0.000000000e+00 0.000000000e+00
1.900000e+09 -2.254081544e+00 1.723342169e+00 1.508319531e-03 1.529349310e-02 0.000000000e+00 0.000000000e+00 0.000000000e+00 0.000000000e+00
1.910000e+09 -2.244705842e+00 1.724398407e+00 1.591548593e-03 1.530284601e-02 0.000000000e+00 0.000000000e+00 0.000000000e+00 0.000000000e+00
1.920000e+09 -2.235363826e+00 1.725399534e+00 1.674478575e-03 1.531170973e-02 0.000000000e+00 0.000000000e+00 0.000000000e+00 0.000000000e+00
1.930000e+09 -2.226055697e+00 1.726346174e+00 1.757107695e-03 1.532008978e-02 0.000000000e+00 0.000000000e+00 0.000000000e+00 0.000000000e+00
1.940000e+09 -2.216781646e+00 1.727238947e+00 1.839434246e-03 1.532799167e-02 0.000000000e+00 0.000000000e+00 0.000000000e+00 0.000000000e+00
1.950000e+09 -2.207541858e+00 1.728078467e+00 1.921456591e-03 1.533542085e-02 0.000000000e+00 0.000000000e+00 0.000000000e+00 0.000000000e+00
1.960000e+09 -2.198336509e+00 1.728865348e+00 2.003173163e-03 1.534238277e-02 0.000000000e+00 0.000000000e+00 0.000000000e+00 0.000000000e+00
1.970000e+09 -2.189165769e+00 1.729600198e+00 2.084582463e-03 1.534888283e-02 0.000000000e+00 0.000000000e+00 0.000000000e+00 0.000000000e+00
1.980000e+09 -2.180029798e+00 1.730283622e+00 2.165683060e-03 1.535492639e-02 0.000000000e+00 0.000000000e+00 0.000000000e+00 0.000000000e+00
1.990000e+09 -2.170928751e+00 1.730916221e+00 2.246473590e-03 1.536051880e-02 0.000000000e+00 0.000000000e+00 0.000000000e+00 0.000000000e+00
2.000000e+09 -2.161862773e+00 1.731498593e+00 2.326952752e-03 1.536566535e-02 0.000000000e+00 0.000000000e+00 0.000000000e+00 0.000000000e+00
2.010000e+09 -2.152832003e+00 1.732031331e+00 2.407119311e-03 1.537037132e-02 0.000000000e+00 0.000000000e+00 0.000000000e+00 0.000000000e+00
2.020000e+09 -2.143836575e+00 1.732515025e+00 2.486972095e-03 1.537464194e-02 0.000000000e+00 0.000000000e+00 0.000000000e+00 0.000000000e+00
2.030000e+09 -2.134876612e+00 1.732950260e+00 2.566509992e-03 1.537848241e-02 0.000000000e+00 0.000000000e+00 0.000000000e+00 0.000000000e+00
2.040000e+09 -2.125952233e+00 1.733337618e+00 2.645731953e-03 1.538189789e-02 0.000000000e+00 0.000000000e+00 0.000000000e+00 0.000000000e+00
2.050000e+09 -2.117063551e+00 1.733677676e+00 2.724636986e-03 1.538489351e-02 0.000000000e+00 0.000000000e+00 0.000000000e+00 0.000000000e+00
2.060000e+09 -2.108210668e+00 1.733971009e+00 2.803224160e-03 1.538747436e-02 0.000000000e+00 0.000000000e+00 0.000000000e+00 0.000000000e+00
2.070000e+09 -2.099393685e+00 1.734218186e+00 2.881492600e-03 1.538964550e-02 0.000000000e+00 0.000000000e+00 0.000000000e+00 0.000000000e+00
2.080000e+09 -2.090612694e+00 1.734419772e+00 2.959441486e-03 1.539141194e-02 0.000000000e+00 0.000000000e+00 0.000000000e+00 0.000000000e+00
2.090000e+09 -2.081867779e+00 1.734576327e+00 3.037070056e-03 1.539277866e-02 0.000000000e+00 0.000000000e+00 0.000000000e+00 0.000000000e+00
2.100000e+09 -2.073159022e+00 1.734688411e+00 3.114377600e-03 1.539375062e-02 0.000000000e+00 0.000000000e+00 0.000000000e+00 0.000000000e+00
2.110000e+09 -2.064486497e+00 1.734756574e+00 3.191363463e-03 1.539433271e-02 0.000000000e+00 0.000000000e+00 0.000000000e+00 0.000000000e+00
2.120000e+09 -2.055850270e+00 1.734781365e+00 3.268027040e-03 1.539452981e-02 0.000000000e+00 0.000000000e+00 0.000000000e+00 0.000000000e+00
2.130000e+09 -2.047250404e+00 1.734763329e+00 3.344367779e-03 1.539434674e-02 0.000000000e+00 0.000000000e+00 0.000000000e+00 0.000000000e+00
2.140000e+09 -2.038686957e+00 1.734703006e+00 3.420385177e-03 1.539378831e-02 0.000000000e+00 0.000000000e+00 0.000000000e+00 0.000000000e+00
2.150000e+09 -2.030159978e+00 1.734600932e+00 3.496078779e-03 1.539285926e-02 0.000000000e+00 0.000000000e+00 0.000000000e+00 0.000000000e+00
2.160000e+09 -2.021669515e+00 1.734457637e+00 3.571448181e-03 1.539156431e-02 0.000000000e+00 0.000000000e+00 0.000000000e+00 0.000000000e+00
2.170000e+09 -2.013215606e+00 1.734273649e+00 3.646493024e-03 1.538990815e-02 0.000000000e+00 0.000000000e+00 0.000000000e+00 0.000000000e+00
2.180000e+09 -2.004798288e+00 1.734049491e+00 3.721212996e-03 1.538789540e-02 0.000000000e+00 0.000000000e+00 0.000000000e+00 0.000000000e+00
2.190000e+09 -1.996417590e+00 1.733785680e+00 3.795607828e-03 1.538553068e-02 0.000000000e+00 0.000000000e+00 0.000000000e+00 0.000000000e+00
2.200000e+09 -1.988073537e+00 1.733482732e+00 3.869677299e-03 1.538281855e-02 0.000000000e+00 0.000000000e+00 0.000000000e+00 0.000000000e+00
2.210000e+09 -1.979766151e+00 1.733141155e+00 3.943421228e-03 1.537976352e-02 0.000000000e+00 0.000000000e+00 0.000000000e+00 0.000000000e+00
2.220000e+09 -1.971495445e+00 1.732761455e+00 4.016839479e-03 1.537637008e-02 0.000000000e+00 0.000000000e+00 0.000000000e+00 0.000000000e+00
2.230000e+09 -1.963261431e+00 1.732344133e+00 4.089931955e-03 1.537264269e-02 0.000000000e+00 0.000000000e+00 0.000000000e+00 0.000000000e+00
2.240000e+09 -1.955064115e+00 1.731889685e+00 4.162698600e-03 1.536858575e-02 0.000000000e+00 0.000000000e+00 0.000000000e+00 0.000000000e+00
2.250000e+09 -1.946903499e+00 1.731398604e+00 4.235139400e-03 1.536420362e-02 0.000000000e+00 0.000000000e+00 0.000000000e+00 0.000000000e+00
2.260000e+09 -1.938779581e+00 1.730871376e+00 4.307254378e-03 1.535950063e-02 0.000000000e+00 0.000000000e+00 0.000000000e+00 0.000000000e+00
2.270000e+09 -1.930692352e+00 1.730308486e+00 4.379043595e-03 1.535448108e-02 0.000000000e+00 0.000000000e+00 0.000000000e+00 0.000000000e+00
2.280000e+09 -1.922641803e+00 1.729710412e+00 4.450507149e-03 1.534914922e-02 0.000000000e+00 0.000000000e+00 0.000000000e+00 0.000000000e+00
2.290000e+09 -1.914627918e+00 1.729077630e+00 4.521645175e-03 1.534350926e-02 0.000000000e+00 0.000000000e+00 0.000000000e+00 0.000000000e+00
2.300000e+09 -1.906650678e+00 1.728410608e+00 4.592457842e-03 1.533756537e-02 0.000000000e+00 0.000000000e+00 0.000000000e+00 0.000000000e+00
2.310000e+09 -1.898710059e+00 1.727709814e+00 4.662945356e-03 1.533132169e-02 0.000000000e+00 0.000000000e+00 0.000000000e+00 0.000000000e+00
2.320000e+09 -1.890806036e+00 1.726975708e+00 4.733107955e-03 1.532478232e-02 0.000000000e+00 0.000000000e+00 0.000000000e+00 0.000000000e+00
2.330000e+09 -1.882938576e+00 1.726208748e+00 4.802945910e-03 1.531795131e-02 0.000000000e+00 0.000000000e+00 0.000000000e+00 0.000000000e+00
2.340000e+09 -1.875107647e+00 1.725409386e+00 4.872459526e-03 1.531083269e-02 0.000000000e+00 0.000000000e+00 0.000000000e+00 0.000000000e+00
2.350000e+09 -1.867313210e+00 1.724578071e+00 4.941649137e-03 1.530343042e-02 0.000000000e+00 0.000000000e+00 0.000000000e+00 0.000000000e+00
2.360000e+09 -1.859555224e+00 1.723715247e+00 5.010515109e-03 1.529574847e-02 0.000000000e+00 0.000000000e+00 0.000000000e+00 0.000000000e+00
2.370000e+09 -1.851833645e+00 1.722821355e+00 5.079057838e-03 1.528779072e-02 0.000000000e+00 0.000000000e+00 0.000000000e+00 0.000000000e+00
2.380000e+09 -1.844148424e+00 1.721896828e+00 5.147277749e-03 1.527956105e-02 0.000000000e+00 0.000000000e+00 0.000000000e+00 0.000000000e+00
2.390000e+09 -1.836499511e+00 1.720942099e+00 5.215175297e-03 1.527106328e-02 0.000000000e+00 0.000000000e+00 0.000000000e+00 0.000000000e+00
2.400000e+09 -1.828886851e+00 1.719957595e+00 5.282750962e-03 1.526230121e-02 0.000000000e+00 0.000000000e+00 0.000000000e+00 0.000000000e+00
2.410000e+09 -1.821310386e+00 1.718943738e+00 5.350005253e-03 1.525327858e-02 0.000000000e+00 0.000000000e+00 0.000000000e+00 0.000000000e+00
2.420000e+09 -1.813770057e+00 1.717900946e+00 5.416938705e-03 1.524399911e-02 0.000000000e+00 0.000000000e+00 0.000000000e+00 0.000000000e+00
2.430000e+09 -1.806265801e+00 1.716829635e+00 5.483551879e-03 1.523446648e-02 0.000000000e+00 0.000000000e+00 0.000000000e+00 0.000000000e+00
2.440000e+09 -1.798797551e+00 1.715730214e+00 5.549845360e-03 1.522468433e-02 0.000000000e+00 0.000000000e+00 0.000000000e+00 0.000000000e+00
2.450000e+09 -1.791365239e+00 1.714603088e+00 5.615819759e-03 1.521465626e-02 0.000000000e+00 0.000000000e+00 0.000000000e+00 0.000000000e+00
2.460000e+09 -1.783968793e+00 1.713448660e+00 5.681475710e-03 1.520438583e-02 0.000000000e+00 0.000000000e+00 0.000000000e+00 0.000000000e+00
2.470000e+09 -1.776608140e+00 1.712267328e+00 5.746813869e-03 1.519387658e-02 0.000000000e+00 0.000000000e+00 0.000000000e+00 0.000000000e+00
2.480000e+09 -1.769283202e+00 1.711059483e+00 5.811834917e-03 1.518313199e-02 0.000000000e+00 0.000000000e+00 0.000000000e+00 0.000000000e+00
2.490000e+09 -1.761993900e+00 1.709825517e+00 5.876539553e-03 1.517215552e-02 0.000000000e+00 0.000000000e+00 0.000000000e+00 0.000000000e+00
2.500000e+09 -1.754740154e+00 1.708565813e+00 5.940928502e-03 1.516095059e-02 0.000000000e+00 0.000000000e+00 0.000000000e+00 0.000000000e+00
2.510000e+09 -1.747521880e+00 1.707280753e+00 6.005002507e-03 1.514952059e-02 0.000000000e+00 0.000000000e+00 0.000000000e+00 0.000000000e+00
2.520000e+09 -1.740338991e+00 1.705970715e+00 6.068762331e-03 1.513786885e-02 0.000000000e+00 0.000000000e+00 0.000000000e+00 0.000000000e+00
2.530000e+09 -1.733191399e+00 1.704636071e+00 6.132208756e-03 1.512599870e-02 0.000000000e+00 0.000000000e+00 0.000000000e+00 0.000000000e+00
2.540000e+09 -1.726079014e+00 1.703277190e+00 6.195342586e-03 1.511391341e-02 0.000000000e+00 0.000000000e+00 0.000000000e+00 0.000000000e+00
2.550000e+09 -1.719001744e+00 1.701894437e+00 6.258164639e-03 1.510161621e-02 0.000000000e+00 0.000000000e+00 0.000000000e+00 0.000000000e+00
2.560000e+09 -1.711959494e+00 1.700488174e+00 6.320675755e-03 1.508911032e-02 0.000000000e+00 0.000000000e+00 0.000000000e+00 0.000000000e+00
2.570000e+09 -1.704952168e+00 1.699058758e+00 6.382876788e-03 1.507639891e-02 0.000000000e+00 0.000000000e+00 0.000000000e+00 0.000000000e+00
2.580000e+09 -1.697979667e+00 1.697606542e+00 6.444768612e-03 1.506348511e-02 0.000000000e+00 0.000000000e+00 0.000000000e+00 0.000000000e+00
2.590000e+09 -1.691041892e+00 1.696131875e+00 6.506352114e-03 1.505037202e-02 0.000000000e+00 0.000000000e+00 0.000000000e+00 0.000000000e+00
2.600000e+09 -1.684138740e+00 1.694635103e+00 6.567628199e-03 1.503706271e-02 0.000000000e+00 0.000000000e+00 0.000000000e+00 0.000000000e+00
2.610000e+09 -1.677270108e+00 1.693116569e+00 6.628597786e-03 1.502356021e-02 0.000000000e+00 0.000000000e+00 0.000000000e+00 0.000000000e+00
2.620000e+09 -1.670435891e+00 1.691576608e+00 6.689261810e-03 1.500986753e-02 0.000000000e+00 0.000000000e+00 0.000000000e+00 0.000000000e+00
2.630000e+09 -1.663635981e+00 1.690015557e+00 6.749621220e-03 1.499598762e-02 0.000000000e+00 0.000000000e+00 0.000000000e+00 0.000000000e+00
2.640000e+09 -1.656870271e+00 1.688433746e+00 6.809676977e-03 1.498192344e-02 0.000000000e+00 0.000000000e+00 0.000000000e+00 0.000000000e+00
2.650000e+09 -1.650138651e+00 1.686831500e+00 6.869430057e-03 1.496767786e-02 0.000000000e+00 0.000000000e+00 0.000000000e+00 0.000000000e+00
2.660000e+09 -1.643441009e+00 1.685209143e+00 6.928881451e-03 1.495325376e-02 0.000000000e+00 0.000000000e+00 0.000000000e+00 0.000000000e+00
2.670000e+09 -1.636777232e+00 1.683566995e+00 6.988032157e-03 1.493865398e-02 0.000000000e+00 0.000000000e+00 0.000000000e+00 0.000000000e+00
2.680000e+09 -1.630147206e+00 1.681905371e+00 7.046883191e-03 1.492388132e-02 0.000000000e+00 0.000000000e+00 0.000000000e+00 0.000000000e+00
2.690000e+09 -1.623550816e+00 1.680224583e+00 7.105435576e-03 1.490893855e-02 0.000000000e+00 0.000000000e+00 0.000000000e+00 0.000000000e+00
2.700000e+09 -1.616987944e+00 1.678524940e+00 7.163690349e-03 1.489382840e-02 0.000000000e+00 0.000000000e+00 0.000000000e+00 0.000000000e+00
2.710000e+09 -1.610458474e+00 1.676806747e+00 7.221648557e-03 1.487855358e-02 0.000000000e+00 0.000000000e+00 0.000000000e+00 0.000000000e+00
2.720000e+09 -1.603962286e+00 1.675070305e+00 7.279311256e-03 1.486311677e-02 0.000000000e+00 0.000000000e+00 0.000000000e+00 0.000000000e+00
2.730000e+09 -1.597499260e+00 1.673315912e+00 7.336679514e-03 1.484752062e-02 0.000000000e+00 0.000000000e+00 0.000000000e+00 0.000000000e+00
2.740000e+09 -1.591069274e+00 1.671543863e+00 7.393754408e-03 1.483176773e-02 0.000000000e+00 0.000000000e+00 0.000000000e+00 0.000000000e+00
2.750000e+09 -1.584672207e+00 1.669754448e+00 7.450537024e-03 1.481586070e-02 0.000000000e+00 0.000000000e+00 0.000000000e+00 0.000000000e+00
2.760000e+09 -1.578307934e+00 1.667947955e+00 7.507028456e-03 1.479980206e-02 0.000000000e+00 0.000000000e+00 0.000000000e+00 0.000000000e+00
2.770000e+09 -1.571976332e+00 1.666124669e+00 7.563229808e-03 1.478359435e-02 0.000000000e+00 0.000000000e+00 0.000000000e+00 0.000000000e+00
2.780000e+09 -1.565677275e+00 1.664284870e+00 7.619142192e-03 1.476724006e-02 0.000000000e+00 0.000000000e+00 0.000000000e+00 0.000000000e+00
2.790000e+09 -1.559410638e+00 1.662428835e+00 7.674766725e-03 1.475074165e-02 0.000000000e+00 0.000000000e+00 0.000000000e+00 0.000000000e+00
2.800000e+09 -1.553176293e+00 1.660556840e+00 7.730104536e-03 1.473410156e-02 0.000000000e+00 0.000000000e+00 0.000000000e+00 0.000000000e+00
2.810000e+09 -1.546974112e+00 1.658669155e+00 7.785156758e-03 1.471732219e-02 0.000000000e+00 0.000000000e+00 0.000000000e+00 0.000000000e+00
2.820000e+09 -1.540803968e+00 1.656766047e+00 7.839924530e-03 1.470040592e-02 0.000000000e+00 0.000000000e+00 0.000000000e+00 0.000000000e+00
2.830000e+09 -1.534665731e+00 1.654847782e+00 7.894409001e-03 1.468335509e-02 0.000000000e+00 0.000000000e+00 0.000000000e+00 0.000000000e+00
2.840000e+09 -1.528559271e+00 1.652914620e+00 7.948611323e-03 1.466617203e-02 0.000000000e+00 0.000000000e+00 0.000000000e+00 0.000000000e+00
2.850000e+09 -1.522484457e+00 1.650966819e+00 8.002532655e-03 1.464885902e-02 0.000000000e+00 0.000000000e+00 0.000000000e+00 0.000000000e+00
2.860000e+09 -1.516441159e+00 1.649004636e+00 8.056174162e-03 1.463141834e-02 0.000000000e+00 0.000000000e+00 0.000000000e+00 0.000000000e+00
2.870000e+09 -1.510429245e+00 1.647028320e+00 8.109537013e-03 1.461385220e-02 0.000000000e+00 0.000000000e+00 0.000000000e+00 0.000000000e+00
2.880000e+09 -1.504448582e+00 1.645038123e+00 8.162622382e-03 1.459616284e-02 0.000000000e+00 0.000000000e+00 0.000000000e+00 0.000000000e+00
2.890000e+09 -1.498499037e+00 1.643034288e+00 8.215431450e-03 1.457835242e-02 0.000000000e+00 0.000000000e+00 0.000000000e+00 0.000000000e+00
2.900000e+09 -1.492580478e+00 1.641017060e+00 8.267965398e-03 1.456042310e-02 0.000000000e+00 0.000000000e+00 0.000000000e+00 0.000000000e+00
2.910000e+09 -1.486692770e+00 1.638986678e+00 8.320225417e-03 1.454237701e-02 0.000000000e+00 0.000000000e+00 0.000000000e+00 0.000000000e+00
2.920000e+09 -1.480835780e+00 1.636943378e+00 8.372212696e-03 1.452421626e-02 0.000000000e+00 0.000000000e+00 0.000000000e+00 0.000000000e+00
2.930000e+09 -1.475009372e+00 1.634887395e+00 8.423928431e-03 1.450594292e-02 0.000000000e+00 0.000000000e+00 0.000000000e+00 0.000000000e+00
2.940000e+09 -1.469213411e+00 1.632818959e+00 8.475373820e-03 1.448755903e-02 0.000000000e+00 0.000000000e+00 0.000000000e+00 0.000000000e+00
2.950000e+09 -1.463447763e+00 1.630738300e+00 8.526550066e-03 1.446906663e-02 0.000000000e+00 0.000000000e+00 0.000000000e+00 0.000000000e+00
2.960000e+09 -1.457712291e+00 1.628645641e+00 8.577458372e-03 1.445046772e-02 0.000000000e+00 0.000000000e+00 0.000000000e+00 0.000000000e+00
2.970000e+09 -1.452006860e+00 1.626541207e+00 8.628099946e-03 1.443176426e-02 0.000000000e+00 0.000000000e+00 0.000000000e+00 0.000000000e+00
2.980000e+09 -1.446331334e+00 1.624425215e+00 8.678475997e-03 1.441295821e-02 0.000000000e+00 0.000000000e+00 0.000000000e+00 0.000000000e+00
2.990000e+09 -1.440685575e+00 1.622297884e+00 8.728587736e-03 1.439405150e-02 0.000000000e+00 0.000000000e+00 0.000000000e+00 0.000000000e+00
3.000000e+09 -1.435069447e+00 1.620159427e+00 8.778436378e-03 1.437504603e-02 0.000000000e+00 0.000000000e+00 0.000000000e+00 0.000000000e+00
