! rfsim (KiCad + openEMS)
# HZ S RI R 50
5.000000e+08 -5.237849899e+01 3.396342296e+02 2.640611151e+00 -3.589741781e-01 0.000000000e+00 0.000000000e+00 0.000000000e+00 0.000000000e+00
5.100000e+08 -5.046557032e+01 3.330623665e+02 2.639281135e+00 -3.537068680e-01 0.000000000e+00 0.000000000e+00 0.000000000e+00 0.000000000e+00
5.200000e+08 -4.867113824e+01 3.267473404e+02 2.638132747e+00 -3.487346894e-01 0.000000000e+00 0.000000000e+00 0.000000000e+00 0.000000000e+00
5.300000e+08 -4.698227487e+01 3.206747809e+02 2.637136795e+00 -3.440428548e-01 0.000000000e+00 0.000000000e+00 0.000000000e+00 0.000000000e+00
5.400000e+08 -4.538769833e+01 3.148303323e+02 2.636265844e+00 -3.396138677e-01 0.000000000e+00 0.000000000e+00 0.000000000e+00 0.000000000e+00
5.500000e+08 -4.387779806e+01 3.091998787e+02 2.635495096e+00 -3.354278197e-01 0.000000000e+00 0.000000000e+00 0.000000000e+00 0.000000000e+00
5.600000e+08 -4.244459269e+01 3.037697705e+02 2.634803107e+00 -3.314629072e-01 0.000000000e+00 0.000000000e+00 0.000000000e+00 0.000000000e+00
5.700000e+08 -4.108162775e+01 2.985270336e+02 2.634172323e+00 -3.276961184e-01 0.000000000e+00 0.000000000e+00 0.000000000e+00 0.000000000e+00
5.800000e+08 -3.978382291e+01 2.934595501e+02 2.633589395e+00 -3.241040330e-01 0.000000000e+00 0.000000000e+00 0.000000000e+00 0.000000000e+00
5.900000e+08 -3.854728091e+01 2.885561987e+02 2.633045266e+00 -3.206636735e-01 0.000000000e+00 0.000000000e+00 0.000000000e+00 0.000000000e+00
6.000000e+08 -3.736907109e+01 2.838069479e+02 2.632535023e+00 -3.173533487e-01 0.000000000e+00 0.000000000e+00 0.000000000e+00 0.000000000e+00
6.100000e+08 -3.624700129e+01 2.792029009e+02 2.632057538e+00 -3.141534313e-01 0.000000000e+00 0.000000000e+00 0.000000000e+00 0.000000000e+00
6.200000e+08 -3.517939107e+01 2.747362903e+02 2.631614927e+00 -3.110470198e-01 0.000000000e+00 0.000000000e+00 0.000000000e+00 0.000000000e+00
6.300000e+08 -3.416485852e+01 2.704004271e+02 2.631211853e+00 -3.080204431e-01 0.000000000e+00 0.000000000e+00 0.000000000e+00 0.000000000e+00
6.400000e+08 -3.320213066e+01 2.661896110e+02 2.630854745e+00 -3.050635821e-01 0.000000000e+00 0.000000000e+00 0.000000000e+00 0.000000000e+00
6.500000e+08 -3.228988541e+01 2.620990090e+02 2.630550959e+00 -3.021699919e-01 0.000000000e+00 0.000000000e+00 0.000000000e+00 0.000000000e+00
6.600000e+08 -3.142663018e+01 2.581245122e+02 2.630307950e+00 -2.993368242e-01 0.000000000e+00 0.000000000e+00 0.000000000e+00 0.000000000e+00
6.700000e+08 -3.061061964e+01 2.542625814e+02 2.630132503e+00 -2.965645653e-01 0.000000000e+00 0.000000000e+00 0.000000000e+00 0.000000000e+00
6.800000e+08 -2.983981216e+01 2.505100905e+02 2.630030051e+00 -2.938566092e-01 0.000000000e+00 0.000000000e+00 0.000000000e+00 0.000000000e+00
6.900000e+08 -2.911186266e+01 2.468641775e+02 2.630004134e+00 -2.912187033e-01 0.000000000e+00 0.000000000e+00 0.000000000e+00 0.000000000e+00
7.000000e+08 -2.842414699e+01 2.433221089e+02 2.630056004e+00 -2.886583007e-01 0.000000000e+00 0.000000000e+00 0.000000000e+00 0.000000000e+00
7.100000e+08 -2.777381233e+01 2.398811658e+02 2.630184399e+00 -2.861838634e-01 0.000000000e+00 0.000000000e+00 0.000000000e+00 0.000000000e+00
7.200000e+08 -2.715784666e+01 2.365385535e+02 2.630385486e+00 -2.838041552e-01 0.000000000e+00 0.000000000e+00 0.000000000e+00 0.000000000e+00
7.300000e+08 -2.657316051e+01 2.332913370e+02 2.630652961e+00 -2.815275651e-01 0.000000000e+00 0.000000000e+00 0.000000000e+00 0.000000000e+00
7.400000e+08 -2.601667403e+01 2.301364044e+02 2.630978301e+00 -2.793614937e-01 0.000000000e+00 0.000000000e+00 0.000000000e+00 0.000000000e+00
7.500000e+08 -2.548540313e+01 2.270704546e+02 2.631351128e+00 -2.773118327e-01 0.000000000e+00 0.000000000e+00 0.000000000e+00 0.000000000e+00
7.600000e+08 -2.497653926e+01 2.240900085e+02 2.631759676e+00 -2.753825591e-01 0.000000000e+00 0.000000000e+00 0.000000000e+00 0.000000000e+00
7.700000e+08 -2.448751808e+01 2.211914396e+02 2.632191322e+00 -2.735754582e-01 0.000000000e+00 0.000000000e+00 0.000000000e+00 0.000000000e+00
7.800000e+08 -2.401607389e+01 2.183710203e+02 2.632633142e+00 -2.718899840e-01 0.000000000e+00 0.000000000e+00 0.000000000e+00 0.000000000e+00
7.900000e+08 -2.356027735e+01 2.156249786e+02 2.633072479e+00 -2.703232559e-01 0.000000000e+00 0.000000000e+00 0.000000000e+00 0.000000000e+00
8.000000e+08 -2.311855546e+01 2.129495611e+02 2.633497470e+00 -2.688701857e-01 0.000000000e+00 0.000000000e+00 0.000000000e+00 0.000000000e+00
8.100000e+08 -2.268969379e+01 2.103410981e+02 2.633897520e+00 -2.675237203e-01 0.000000000e+00 0.000000000e+00 0.000000000e+00 0.000000000e+00
8.200000e+08 -2.227282190e+01 2.077960650e+02 2.634263700e+00 -2.662751820e-01 0.000000000e+00 0.000000000e+00 0.000000000e+00 0.000000000e+00
8.300000e+08 -2.186738394e+01 2.053111383e+02 2.634589034e+00 -2.651146825e-01 0.000000000e+00 0.000000000e+00 0.000000000e+00 0.000000000e+00
8.400000e+08 -2.147309686e+01 2.028832413e+02 2.634868688e+00 -2.640315848e-01 0.000000000e+00 0.000000000e+00 0.000000000e+00 0.000000000e+00
8.500000e+08 -2.108989953e+01 2.005095783e+02 2.635100032e+00 -2.630149836e-01 0.000000000e+00 0.000000000e+00 0.000000000e+00 0.000000000e+00
8.600000e+08 -2.071789612e+01 1.981876557e+02 2.635282598e+00 -2.620541778e-01 0.000000000e+00 0.000000000e+00 0.000000000e+00 0.000000000e+00
8.700000e+08 -2.035729726e+01 1.959152892e+02 2.635417925e+00 -2.611391076e-01 0.000000000e+00 0.000000000e+00 0.000000000e+00 0.000000000e+00
8.800000e+08 -2.000836258e+01 1.936905977e+02 2.635509313e+00 -2.602607340e-01 0.000000000e+00 0.000000000e+00 0.000000000e+00 0.000000000e+00
8.900000e+08 -1.967134744e+01 1.915119849e+02 2.635561505e+00 -2.594113425e-01 0.000000000e+00 0.000000000e+00 0.000000000e+00 0.000000000e+00
9.000000e+08 -1.934645676e+01 1.893781111e+02 2.635580323e+00 -2.585847578e-01 0.000000000e+00 0.000000000e+00 0.000000000e+00 0.000000000e+00
9.100000e+08 -1.903380769e+01 1.872878559e+02 2.635572265e+00 -2.577764628e-01 0.000000000e+00 0.000000000e+00 0.000000000e+00 0.000000000e+00
9.200000e+08 -1.873340260e+01 1.852402772e+02 2.635544112e+00 -2.569836218e-01 0.000000000e+00 0.000000000e+00 0.000000000e+00 0.000000000e+00
9.300000e+08 -1.844511277e+01 1.832345653e+02 2.635502544e+00 -2.562050129e-01 0.000000000e+00 0.000000000e+00 0.000000000e+00 0.000000000e+00
9.400000e+08 -1.816867283e+01 1.812699991e+02 2.635453807e+00 -2.554408800e-01 0.000000000e+00 0.000000000e+00 0.000000000e+00 0.000000000e+00
9.500000e+08 -1.790368502e+01 1.793459038e+02 2.635403425e+00 -2.546927192e-01 0.000000000e+00 0.000000000e+00 0.000000000e+00 0.000000000e+00
9.600000e+08 -1.764963214e+01 1.774616128e+02 2.635355986e+00 -2.539630167e-01 0.000000000e+00 0.000000000e+00 0.000000000e+00 0.000000000e+00
9.700000e+08 -1.740589742e+01 1.756164365e+02 2.635315002e+00 -2.532549567e-01 0.000000000e+00 0.000000000e+00 0.000000000e+00 0.000000000e+00
9.800000e+08 -1.717178950e+01 1.738096382e+02 2.635282844e+00 -2.525721201e-01 0.000000000e+00 0.000000000e+00 0.000000000e+00 0.000000000e+00
9.900000e+08 -1.694657036e+01 1.720404173e+02 2.635260748e+00 -2.519181906e-01 0.000000000e+00 0.000000000e+00 0.000000000e+00 0.000000000e+00
1.000000e+09 -1.672948436e+01 1.703079014e+02 2.635248897e+00 -2.512966862e-01 0.000000000e+00 0.000000000e+00 0.000000000e+00 0.000000000e+00
1.010000e+09 -1.651978633e+01 1.686111448e+02 2.635246546e+00 -2.507107287e-01 0.000000000e+00 0.000000000e+00 0.000000000e+00 0.000000000e+00
1.020000e+09 -1.631676728e+01 1.669491351e+02 2.635252200e+00 -2.501628625e-01 0.000000000e+00 0.000000000e+00 0.000000000e+00 0.000000000e+00
1.030000e+09 -1.611977614e+01 1.653208042e+02 2.635263816e+00 -2.496549296e-01 0.000000000e+00 0.000000000e+00 0.000000000e+00 0.000000000e+00
1.040000e+09 -1.592823678e+01 1.637250443e+02 2.635279024e+00 -2.491880026e-01 0.000000000e+00 0.000000000e+00 0.000000000e+00 0.000000000e+00
1.050000e+09 -1.574165948e+01 1.621607267e+02 2.635295337e+00 -2.487623763e-01 0.000000000e+00 0.000000000e+00 0.000000000e+00 0.000000000e+00
1.060000e+09 -1.555964672e+01 1.606267223e+02 2.635310357e+00 -2.483776126e-01 0.000000000e+00 0.000000000e+00 0.000000000e+00 0.000000000e+00
1.070000e+09 -1.538189339e+01 1.591219210e+02 2.635321944e+00 -2.480326317e-01 0.000000000e+00 0.000000000e+00 0.000000000e+00 0.000000000e+00
1.080000e+09 -1.520818189e+01 1.576452508e+02 2.635328356e+00 -2.477258394e-01 0.000000000e+00 0.000000000e+00 0.000000000e+00 0.000000000e+00
1.090000e+09 -1.503837273e+01 1.561956939e+02 2.635328341e+00 -2.474552791e-01 0.000000000e+00 0.000000000e+00 0.000000000e+00 0.000000000e+00
1.100000e+09 -1.487239176e+01 1.547722995e+02 2.635321184e+00 -2.472187972e-01 0.000000000e+00 0.000000000e+00 0.000000000e+00 0.000000000e+00
1.110000e+09 -1.471021498e+01 1.533741923e+02 2.635306709e+00 -2.470142062e-01 0.000000000e+00 0.000000000e+00 0.000000000e+00 0.000000000e+00
1.120000e+09 -1.455185207e+01 1.520005770e+02 2.635285234e+00 -2.468394380e-01 0.000000000e+00 0.000000000e+00 0.000000000e+00 0.000000000e+00
1.130000e+09 -1.439732994e+01 1.506507389e+02 2.635257494e+00 -2.466926728e-01 0.000000000e+00 0.000000000e+00 0.000000000e+00 0.000000000e+00
1.140000e+09 -1.424667713e+01 1.493240394e+02 2.635224531e+00 -2.465724383e-01 0.000000000e+00 0.000000000e+00 0.000000000e+00 0.000000000e+00
1.150000e+09 -1.409991029e+01 1.480199094e+02 2.635187561e+00 -2.464776726e-01 0.000000000e+00 0.000000000e+00 0.000000000e+00 0.000000000e+00
1.160000e+09 -1.395702313e+01 1.467378384e+02 2.635147845e+00 -2.464077464e-01 0.000000000e+00 0.000000000e+00 0.000000000e+00 0.000000000e+00
1.170000e+09 -1.381797860e+01 1.454773635e+02 2.635106547e+00 -2.463624476e-01 0.000000000e+00 0.000000000e+00 0.000000000e+00 0.000000000e+00
1.180000e+09 -1.368270455e+01 1.442380554e+02 2.635064616e+00 -2.463419278e-01 0.000000000e+00 0.000000000e+00 0.000000000e+00 0.000000000e+00
1.190000e+09 -1.355109268e+01 1.430195060e+02 2.635022681e+00 -2.463466187e-01 0.000000000e+00 0.000000000e+00 0.000000000e+00 0.000000000e+00
1.200000e+09 -1.342300085e+01 1.418213160e+02 2.634980984e+00 -2.463771235e-01 0.000000000e+00 0.000000000e+00 0.000000000e+00 0.000000000e+00
1.210000e+09 -1.329825822e+01 1.406430836e+02 2.634939338e+00 -2.464340938e-01 0.000000000e+00 0.000000000e+00 0.000000000e+00 0.000000000e+00
1.220000e+09 -1.317667256e+01 1.394843964e+02 2.634897127e+00 -2.465181012e-01 0.000000000e+00 0.000000000e+00 0.000000000e+00 0.000000000e+00
1.230000e+09 -1.305803928e+01 1.383448252e+02 2.634853339e+00 -2.466295124e-01 0.000000000e+00 0.000000000e+00 0.000000000e+00 0.000000000e+00
1.240000e+09 -1.294215120e+01 1.372239203e+02 2.634806635e+00 -2.467683791e-01 0.000000000e+00 0.000000000e+00 0.000000000e+00 0.000000000e+00
1.250000e+09 -1.282880853e+01 1.361212116e+02 2.634755442e+00 -2.469343491e-01 0.000000000e+00 0.000000000e+00 0.000000000e+00 0.000000000e+00
1.260000e+09 -1.271782812e+01 1.350362106e+02 2.634698073e+00 -2.471266064e-01 0.000000000e+00 0.000000000e+00 0.000000000e+00 0.000000000e+00
1.270000e+09 -1.260905154e+01 1.339684148e+02 2.634632860e+00 -2.473438448e-01 0.000000000e+00 0.000000000e+00 0.000000000e+00 0.000000000e+00
1.280000e+09 -1.250235132e+01 1.329173144e+02 2.634558282e+00 -2.475842770e-01 0.000000000e+00 0.000000000e+00 0.000000000e+00 0.000000000e+00
1.290000e+09 -1.239763505e+01 1.318824003e+02 2.634473103e+00 -2.478456792e-01 0.000000000e+00 0.000000000e+00 0.000000000e+00 0.000000000e+00
1.300000e+09 -1.229484707e+01 1.308631725e+02 2.634376483e+00 -2.481254698e-01 0.000000000e+00 0.000000000e+00 0.000000000e+00 0.000000000e+00
1.310000e+09 -1.219396778e+01 1.298591488e+02 2.634268070e+00 -2.484208159e-01 0.000000000e+00 0.000000000e+00 0.000000000e+00 0.000000000e+00
1.320000e+09 -1.209501054e+01 1.288698728e+02 2.634148067e+00 -2.487287619e-01 0.000000000e+00 0.000000000e+00 0.000000000e+00 0.000000000e+00
1.330000e+09 -1.199801654e+01 1.278949212e+02 2.634017259e+00 -2.490463722e-01 0.000000000e+00 0.000000000e+00 0.000000000e+00 0.000000000e+00
1.340000e+09 -1.190304799e+01 1.269339090e+02 2.633877008e+00 -2.493708787e-01 0.000000000e+00 0.000000000e+00 0.000000000e+00 0.000000000e+00
1.350000e+09 -1.181018014e+01 1.259864928e+02 2.633729205e+00 -2.496998236e-01 0.000000000e+00 0.000000000e+00 0.000000000e+00 0.000000000e+00
1.360000e+09 -1.171949262e+01 1.250523724e+02 2.633576195e+00 -2.500311878e-01 0.000000000e+00 0.000000000e+00 0.000000000e+00 0.000000000e+00
1.370000e+09 -1.163106073e+01 1.241312896e+02 2.633420664e+00 -2.503634981e-01 0.000000000e+00 0.000000000e+00 0.000000000e+00 0.000000000e+00
1.380000e+09 -1.154494731e+01 1.232230256e+02 2.633265505e+00 -2.506959038e-01 0.000000000e+00 0.000000000e+00 0.000000000e+00 0.000000000e+00
1.390000e+09 -1.146119552e+01 1.223273953e+02 2.633113674e+00 -2.510282195e-01 0.000000000e+00 0.000000000e+00 0.000000000e+00 0.000000000e+00
1.400000e+09 -1.137982316e+01 1.214442414e+02 2.632968024e+00 -2.513609303e-01 0.000000000e+00 0.000000000e+00 0.000000000e+00 0.000000000e+00
1.410000e+09 -1.130081879e+01 1.205734264e+02 2.632831159e+00 -2.516951580e-01 0.000000000e+00 0.000000000e+00 0.000000000e+00 0.000000000e+00
1.420000e+09 -1.122413982e+01 1.197148246e+02 2.632705282e+00 -2.520325911e-01 0.000000000e+00 0.000000000e+00 0.000000000e+00 0.000000000e+00
1.430000e+09 -1.114971266e+01 1.188683132e+02 2.632592081e+00 -2.523753813e-01 0.000000000e+00 0.000000000e+00 0.000000000e+00 0.000000000e+00
1.440000e+09 -1.107743492e+01 1.180337645e+02 2.632492628e+00 -2.527260135e-01 0.000000000e+00 0.000000000e+00 0.000000000e+00 0.000000000e+00
1.450000e+09 -1.100717946e+01 1.172110392e+02 2.632407321e+00 -2.530871558e-01 0.000000000e+00 0.000000000e+00 0.000000000e+00 0.000000000e+00
1.460000e+09 -1.093879990e+01 1.163999796e+02 2.632335859e+00 -2.534614984e-01 0.000000000e+00 0.000000000e+00 0.000000000e+00 0.000000000e+00
1.470000e+09 -1.087213735e+01 1.156004065e+02 2.632277256e+00 -2.538515918e-01 0.000000000e+00 0.000000000e+00 0.000000000e+00 0.000000000e+00
1.480000e+09 -1.080702782e+01 1.148121157e+02 2.632229898e+00 -2.542596916e-01 0.000000000e+00 0.000000000e+00 0.000000000e+00 0.000000000e+00
1.490000e+09 -1.074330991e+01 1.140348786e+02 2.632191627e+00 -2.546876214e-01 0.000000000e+00 0.000000000e+00 0.000000000e+00 0.000000000e+00
1.500000e+09 -1.068083214e+01 1.132684429e+02 2.632159866e+00 -2.551366594e-01 0.000000000e+00 0.000000000e+00 0.000000000e+00 0.000000000e+00
1.510000e+09 -1.061945973e+01 1.125125359e+02 2.632131756e+00 -2.556074571e-01 0.000000000e+00 0.000000000e+00 0.000000000e+00 0.000000000e+00
1.520000e+09 -1.055908014e+01 1.117668698e+02 2.632104317e+00 -2.560999944e-01 0.000000000e+00 0.000000000e+00 0.000000000e+00 0.000000000e+00
1.530000e+09 -1.049960724e+01 1.110311469e+02 2.632074614e+00 -2.566135728e-01 0.000000000e+00 0.000000000e+00 0.000000000e+00 0.000000000e+00
1.540000e+09 -1.044098380e+01 1.103050670e+02 2.632039915e+00 -2.571468486e-01 0.000000000e+00 0.000000000e+00 0.000000000e+00 0.000000000e+00
1.550000e+09 -1.038318222e+01 1.095883339e+02 2.631997841e+00 -2.576979029e-01 0.000000000e+00 0.000000000e+00 0.000000000e+00 0.000000000e+00
1.560000e+09 -1.032620335e+01 1.088806625e+02 2.631946491e+00 -2.582643455e-01 0.000000000e+00 0.000000000e+00 0.000000000e+00 0.000000000e+00
1.570000e+09 -1.027007373e+01 1.081817858e+02 2.631884543e+00 -2.588434452e-01 0.000000000e+00 0.000000000e+00 0.000000000e+00 0.000000000e+00
1.580000e+09 -1.021484120e+01 1.074914596e+02 2.631811319e+00 -2.594322805e-01 0.000000000e+00 0.000000000e+00 0.000000000e+00 0.000000000e+00
1.590000e+09 -1.016056941e+01 1.068094669e+02 2.631726808e+00 -2.600279002e-01 0.000000000e+00 0.000000000e+00 0.000000000e+00 0.000000000e+00
1.600000e+09 -1.010733137e+01 1.061356211e+02 2.631631653e+00 -2.606274854e-01 0.000000000e+00 0.000000000e+00 0.000000000e+00 0.000000000e+00
1.610000e+09 -1.005520265e+01 1.054697661e+02 2.631527100e+00 -2.612285030e-01 0.000000000e+00 0.000000000e+00 0.000000000e+00 0.000000000e+00
1.620000e+09 -1.000425450e+01 1.048117763e+02 2.631414910e+00 -2.618288416e-01 0.000000000e+00 0.000000000e+00 0.000000000e+00 0.000000000e+00
1.630000e+09 -9.954547478e+00 1.041615538e+02 2.631297243e+00 -2.624269214e-01 0.000000000e+00 0.000000000e+00 0.000000000e+00 0.000000000e+00
1.640000e+09 -9.906125799e+00 1.035190246e+02 2.631176512e+00 -2.630217725e-01 0.000000000e+00 0.000000000e+00 0.000000000e+00 0.000000000e+00
1.650000e+09 -9.859012931e+00 1.028841333e+02 2.631055237e+00 -2.636130763e-01 0.000000000e+00 0.000000000e+00 0.000000000e+00 0.000000000e+00
1.660000e+09 -9.813208566e+00 1.022568375e+02 2.630935877e+00 -2.642011673e-01 0.000000000e+00 0.000000000e+00 0.000000000e+00 0.000000000e+00
1.670000e+09 -9.768687187e+00 1.016371006e+02 2.630820679e+00 -2.647869969e-01 0.000000000e+00 0.000000000e+00 0.000000000e+00 0.000000000e+00
1.680000e+09 -9.725398310e+00 1.010248856e+02 2.630711535e+00 -2.653720598e-01 0.000000000e+00 0.000000000e+00 0.000000000e+00 0.000000000e+00
1.690000e+09 -9.683268334e+00 1.004201486e+02 2.630609866e+00 -2.659582881e-01 0.000000000e+00 0.000000000e+00 0.000000000e+00 0.000000000e+00
1.700000e+09 -9.642203903e+00 9.982283295e+01 2.630516528e+00 -2.665479205e-01 0.000000000e+00 0.000000000e+00 0.000000000e+00 0.000000000e+00
1.710000e+09 -9.602096522e+00 9.923286495e+01 2.630431765e+00 -2.671433525e-01 0.000000000e+00 0.000000000e+00 0.000000000e+00 0.000000000e+00
1.720000e+09 -9.562828148e+00 9.865015026e+01 2.630355184e+00 -2.677469796e-01 0.000000000e+00 0.000000000e+00 0.000000000e+00 0.000000000e+00
1.730000e+09 -9.524277395e+00 9.807457219e+01 2.630285784e+00 -2.683610393e-01 0.000000000e+00 0.000000000e+00 0.000000000e+00 0.000000000e+00
1.740000e+09 -9.486325960e+00 9.750599150e+01 2.630222017e+00 -2.689874654e-01 0.000000000e+00 0.000000000e+00 0.000000000e+00 0.000000000e+00
1.750000e+09 -9.448864869e+00 9.694424776e+01 2.630161881e+00 -2.696277602e-01 0.000000000e+00 0.000000000e+00 0.000000000e+00 0.000000000e+00
1.760000e+09 -9.411800157e+00 9.638916229e+01 2.630103044e+00 -2.702828943e-01 0.000000000e+00 0.000000000e+00 0.000000000e+00 0.000000000e+00
1.770000e+09 -9.375057619e+00 9.584054237e+01 2.630042991e+00 -2.709532405e-01 0.000000000e+00 0.000000000e+00 0.000000000e+00 0.000000000e+00
1.780000e+09 -9.338586351e+00 9.529818656e+01 2.629979178e+00 -2.716385441e-01 0.000000000e+00 0.000000000e+00 0.000000000e+00 0.000000000e+00
1.790000e+09 -9.302360845e+00 9.476189069e+01 2.629909198e+00 -2.723379339e-01 0.000000000e+00 0.000000000e+00 0.000000000e+00 0.000000000e+00
1.800000e+09 -9.266381507e+00 9.423145420e+01 2.629830927e+00 -2.730499727e-01 0.000000000e+00 0.000000000e+00 0.000000000e+00 0.000000000e+00
1.810000e+09 -9.230673566e+00 9.370668646e+01 2.629742667e+00 -2.737727440e-01 0.000000000e+00 0.000000000e+00 0.000000000e+00 0.000000000e+00
1.820000e+09 -9.195284431e+00 9.318741260e+01 2.629643255e+00 -2.745039708e-01 0.000000000e+00 0.000000000e+00 0.000000000e+00 0.000000000e+00
1.830000e+09 -9.160279652e+00 9.267347852e+01 2.629532141e+00 -2.752411596e-01 0.000000000e+00 0.000000000e+00 0.000000000e+00 0.000000000e+00
1.840000e+09 -9.125737733e+00 9.216475480e+01 2.629409432e+00 -2.759817596e-01 0.000000000e+00 0.000000000e+00 0.000000000e+00 0.000000000e+00
1.850000e+09 -9.091744108e+00 9.166113913e+01 2.629275891e+00 -2.767233295e-01 0.000000000e+00 0.000000000e+00 0.000000000e+00 0.000000000e+00
1.860000e+09 -9.058384662e+00 9.116255726e+01 2.629132895e+00 -2.774636996e-01 0.000000000e+00 0.000000000e+00 0.000000000e+00 0.000000000e+00
1.870000e+09 -9.025739175e+00 9.066896224e+01 2.628982358e+00 -2.782011205e-01 0.000000000e+00 0.000000000e+00 0.000000000e+00 0.000000000e+00
1.880000e+09 -8.993875121e+00 9.018033216e+01 2.628826611e+00 -2.789343881e-01 0.000000000e+00 0.000000000e+00 0.000000000e+00 0.000000000e+00
1.890000e+09 -8.962842186e+00 8.969666626e+01 2.628668260e+00 -2.796629374e-01 0.000000000e+00 0.000000000e+00 0.000000000e+00 0.000000000e+00
1.900000e+09 -8.932667867e+00 8.921797996e+01 2.628510020e+00 -2.803868980e-01 0.000000000e+00 0.000000000e+00 0.000000000e+00 0.000000000e+00
1.910000e+09 -8.903354411e+00 8.874429879e+01 2.628354541e+00 -2.811071076e-01 0.000000000e+00 0.000000000e+00 0.000000000e+00 0.000000000e+00
1.920000e+09 -8.874877315e+00 8.827565178e+01 2.628204233e+00 -2.818250828e-01 0.000000000e+00 0.000000000e+00 0.000000000e+00 0.000000000e+00
1.930000e+09 -8.847185475e+00 8.781206467e+01 2.628061102e+00 -2.825429458e-01 0.000000000e+00 0.000000000e+00 0.000000000e+00 0.000000000e+00
1.940000e+09 -8.820202995e+00 8.735355330e+01 2.627926604e+00 -2.832633137e-01 0.000000000e+00 0.000000000e+00 0.000000000e+00 0.000000000e+00
1.950000e+09 -8.793832569e+00 8.690011756e+01 2.627801537e+00 -2.839891535e-01 0.000000000e+00 0.000000000e+00 0.000000000e+00 0.000000000e+00
1.960000e+09 -8.767960231e+00 8.645173642e+01 2.627685959e+00 -2.847236123e-01 0.000000000e+00 0.000000000e+00 0.000000000e+00 0.000000000e+00
1.970000e+09 -8.742461229e+00 8.600836411e+01 2.627579162e+00 -2.854698329e-01 0.000000000e+00 0.000000000e+00 0.000000000e+00 0.000000000e+00
1.980000e+09 -8.717206655e+00 8.556992793e+01 2.627479677e+00 -2.862307634e-01 0.000000000e+00 0.000000000e+00 0.000000000e+00 0.000000000e+00
1.990000e+09 -8.692070472e+00 8.513632769e+01 2.627385341e+00 -2.870089740e-01 0.000000000e+00 0.000000000e+00 0.000000000e+00 0.000000000e+00
2.000000e+09 -8.666936496e+00 8.470743683e+01 2.627293392e+00 -2.878064917e-01 0.000000000e+00 0.000000000e+00 0.000000000e+00 0.000000000e+00
2.010000e+09 -8.641704952e+00 8.428310526e+01 2.627200613e+00 -2.886246613e-01 0.000000000e+00 0.000000000e+00 0.000000000e+00 0.000000000e+00
2.020000e+09 -8.616298171e+00 8.386316373e+01 2.627103504e+00 -2.894640445e-01 0.000000000e+00 0.000000000e+00 0.000000000e+00 0.000000000e+00
2.030000e+09 -8.590665111e+00 8.344742947e+01 2.626998475e+00 -2.903243614e-01 0.000000000e+00 0.000000000e+00 0.000000000e+00 0.000000000e+00
2.040000e+09 -8.564784394e+00 8.303571279e+01 2.626882046e+00 -2.912044799e-01 0.000000000e+00 0.000000000e+00 0.000000000e+00 0.000000000e+00
2.050000e+09 -8.538665668e+00 8.262782431e+01 2.626751058e+00 -2.921024557e-01 0.000000000e+00 0.000000000e+00 0.000000000e+00 0.000000000e+00
2.060000e+09 -8.512349186e+00 8.222358229e+01 2.626602854e+00 -2.930156189e-01 0.000000000e+00 0.000000000e+00 0.000000000e+00 0.000000000e+00
2.070000e+09 -8.485903595e+00 8.182281980e+01 2.626435447e+00 -2.939407070e-01 0.000000000e+00 0.000000000e+00 0.000000000e+00 0.000000000e+00
2.080000e+09 -8.459422059e+00 8.142539107e+01 2.626247651e+00 -2.948740337e-01 0.000000000e+00 0.000000000e+00 0.000000000e+00 0.000000000e+00
2.090000e+09 -8.433016900e+00 8.103117685e+01 2.626039166e+00 -2.958116866e-01 0.000000000e+00 0.000000000e+00 0.000000000e+00 0.000000000e+00
2.100000e+09 -8.406813082e+00 8.064008828e+01 2.625810612e+00 -2.967497417e-01 0.000000000e+00 0.000000000e+00 0.000000000e+00 0.000000000e+00
2.110000e+09 -8.380940895e+00 8.025206914e+01 2.625563513e+00 -2.976844827e-01 0.000000000e+00 0.000000000e+00 0.000000000e+00 0.000000000e+00
2.120000e+09 -8.355528284e+00 7.986709621e+01 2.625300233e+00 -2.986126106e-01 0.000000000e+00 0.000000000e+00 0.000000000e+00 0.000000000e+00
2.130000e+09 -8.330693258e+00 7.948517783e+01 2.625023846e+00 -2.995314334e-01 0.000000000e+00 0.000000000e+00 0.000000000e+00 0.000000000e+00
2.140000e+09 -8.306536858e+00 7.910635063e+01 2.624737984e+00 -3.004390212e-01 0.000000000e+00 0.000000000e+00 0.000000000e+00 0.000000000e+00
2.150000e+09 -8.283137090e+00 7.873067461e+01 2.624446634e+00 -3.013343198e-01 0.000000000e+00 0.000000000e+00 0.000000000e+00 0.000000000e+00
2.160000e+09 -8.260544200e+00 7.835822694e+01 2.624153919e+00 -3.022172124e-01 0.000000000e+00 0.000000000e+00 0.000000000e+00 0.000000000e+00
2.170000e+09 -8.238777590e+00 7.798909474e+01 2.623863870e+00 -3.030885275e-01 0.000000000e+00 0.000000000e+00 0.000000000e+00 0.000000000e+00
2.180000e+09 -8.217824551e+00 7.762336734e+01 2.623580197e+00 -3.039499903e-01 0.000000000e+00 0.000000000e+00 0.000000000e+00 0.000000000e+00
2.190000e+09 -8.197640919e+00 7.726112842e+01 2.623306082e+00 -3.048041194e-01 0.000000000e+00 0.000000000e+00 0.000000000e+00 0.000000000e+00
2.200000e+09 -8.178153610e+00 7.690244854e+01 2.623043996e+00 -3.056540761e-01 0.000000000e+00 0.000000000e+00 0.000000000e+00 0.000000000e+00
2.210000e+09 -8.159264901e+00 7.654737851e+01 2.622795567e+00 -3.065034721e-01 0.000000000e+00 0.000000000e+00 0.000000000e+00 0.000000000e+00
2.220000e+09 -8.140858202e+00 7.619594400e+01 2.622561484e+00 -3.073561499e-01 0.000000000e+00 0.000000000e+00 0.000000000e+00 0.000000000e+00
2.230000e+09 -8.122804989e+00 7.584814166e+01 2.622341475e+00 -3.082159447e-01 0.000000000e+00 0.000000000e+00 0.000000000e+00 0.000000000e+00
2.240000e+09 -8.104972473e+00 7.550393712e+01 2.622134323e+00 -3.090864462e-01 0.000000000e+00 0.000000000e+00 0.000000000e+00 0.000000000e+00
2.250000e+09 -8.087231557e+00 7.516326487e+01 2.621937964e+00 -3.099707715e-01 0.000000000e+00 0.000000000e+00 0.000000000e+00 0.000000000e+00
2.260000e+09 -8.069464590e+00 7.482603017e+01 2.621749614e+00 -3.108713653e-01 0.000000000e+00 0.000000000e+00 0.000000000e+00 0.000000000e+00
2.270000e+09 -8.051572441e+00 7.449211275e+01 2.621565966e+00 -3.117898391e-01 0.000000000e+00 0.000000000e+00 0.000000000e+00 0.000000000e+00
2.280000e+09 -8.033480451e+00 7.416137225e+01 2.621383404e+00 -3.127268608e-01 0.000000000e+00 0.000000000e+00 0.000000000e+00 0.000000000e+00
2.290000e+09 -8.015142861e+00 7.383365497e+01 2.621198251e+00 -3.136821019e-01 0.000000000e+00 0.000000000e+00 0.000000000e+00 0.000000000e+00
2.300000e+09 -7.996545445e+00 7.350880151e+01 2.621007021e+00 -3.146542479e-01 0.000000000e+00 0.000000000e+00 0.000000000e+00 0.000000000e+00
2.310000e+09 -7.977706131e+00 7.318665495e+01 2.620806659e+00 -3.156410714e-01 0.000000000e+00 0.000000000e+00 0.000000000e+00 0.000000000e+00
2.320000e+09 -7.958673542e+00 7.286706894e+01 2.620594768e+00 -3.166395664e-01 0.000000000e+00 0.000000000e+00 0.000000000e+00 0.000000000e+00
2.330000e+09 -7.939523520e+00 7.254991520e+01 2.620369781e+00 -3.176461341e-01 0.000000000e+00 0.000000000e+00 0.000000000e+00 0.000000000e+00
2.340000e+09 -7.920353825e+00 7.223509000e+01 2.620131098e+00 -3.186568124e-01 0.000000000e+00 0.000000000e+00 0.000000000e+00 0.000000000e+00
2.350000e+09 -7.901277296e+00 7.192251909e+01 2.619879149e+00 -3.196675330e-01 0.000000000e+00 0.000000000e+00 0.000000000e+00 0.000000000e+00
2.360000e+09 -7.882413917e+00 7.161216078e+01 2.619615396e+00 -3.206743901e-01 0.000000000e+00 0.000000000e+00 0.000000000e+00 0.000000000e+00
2.370000e+09 -7.863882272e+00 7.130400692e+01 2.619342268e+00 -3.216739053e-01 0.000000000e+00 0.000000000e+00 0.000000000e+00 0.000000000e+00
2.380000e+09 -7.845790941e+00 7.099808161e+01 2.619063019e+00 -3.226632677e-01 0.000000000e+00 0.000000000e+00 0.000000000e+00 0.000000000e+00
2.390000e+09 -7.828230401e+00 7.069443784e+01 2.618781536e+00 -3.236405354e-01 0.000000000e+00 0.000000000e+00 0.000000000e+00 0.000000000e+00
2.400000e+09 -7.811266001e+00 7.039315193e+01 2.618502096e+00 -3.246047815e-01 0.000000000e+00 0.000000000e+00 0.000000000e+00 0.000000000e+00
2.410000e+09 -7.794932470e+00 7.009431648e+01 2.618229089e+00 -3.255561752e-01 0.000000000e+00 0.000000000e+00 0.000000000e+00 0.000000000e+00
2.420000e+09 -7.779230405e+00 6.979803187e+01 2.617966722e+00 -3.264959878e-01 0.000000000e+00 0.000000000e+00 0.000000000e+00 0.000000000e+00
2.430000e+09 -7.764124992e+00 6.950439710e+01 2.617718735e+00 -3.274265240e-01 0.000000000e+00 0.000000000e+00 0.000000000e+00 0.000000000e+00
2.440000e+09 -7.749547133e+00 6.921350046e+01 2.617488128e+00 -3.283509766e-01 0.000000000e+00 0.000000000e+00 0.000000000e+00 0.000000000e+00
2.450000e+09 -7.735396974e+00 6.892541066e+01 2.617276942e+00 -3.292732155e-01 0.000000000e+00 0.000000000e+00 0.000000000e+00 0.000000000e+00
2.460000e+09 -7.721549676e+00 6.864016896e+01 2.617086093e+00 -3.301975199e-01 0.000000000e+00 0.000000000e+00 0.000000000e+00 0.000000000e+00
2.470000e+09 -7.707863132e+00 6.835778302e+01 2.616915278e+00 -3.311282708e-01 0.000000000e+00 0.000000000e+00 0.000000000e+00 0.000000000e+00
2.480000e+09 -7.694187187e+00 6.807822276e+01 2.616762964e+00 -3.320696230e-01 0.000000000e+00 0.000000000e+00 0.000000000e+00 0.000000000e+00
2.490000e+09 -7.680373804e+00 6.780141875e+01 2.616626469e+00 -3.330251780e-01 0.000000000e+00 0.000000000e+00 0.000000000e+00 0.000000000e+00
2.500000e+09 -7.666287548e+00 6.752726314e+01 2.616502124e+00 -3.339976800e-01 0.000000000e+00 0.000000000e+00 0.000000000e+00 0.000000000e+00
2.510000e+09 -7.651815692e+00 6.725561351e+01 2.616385515e+00 -3.349887588e-01 0.000000000e+00 0.000000000e+00 0.000000000e+00 0.000000000e+00
2.520000e+09 -7.636877253e+00 6.698629915e+01 2.616271795e+00 -3.359987386e-01 0.000000000e+00 0.000000000e+00 0.000000000e+00 0.000000000e+00
2.530000e+09 -7.621430286e+00 6.671912974e+01 2.616156044e+00 -3.370265305e-01 0.000000000e+00 0.000000000e+00 0.000000000e+00 0.000000000e+00
2.540000e+09 -7.605476863e+00 6.645390590e+01 2.616033661e+00 -3.380696231e-01 0.000000000e+00 0.000000000e+00 0.000000000e+00 0.000000000e+00
2.550000e+09 -7.589065258e+00 6.619043091e+01 2.615900751e+00 -3.391241768e-01 0.000000000e+00 0.000000000e+00 0.000000000e+00 0.000000000e+00
2.560000e+09 -7.572289034e+00 6.592852301e+01 2.615754493e+00 -3.401852237e-01 0.000000000e+00 0.000000000e+00 0.000000000e+00 0.000000000e+00
2.570000e+09 -7.555282909e+00 6.566802739e+01 2.615593454e+00 -3.412469655e-01 0.000000000e+00 0.000000000e+00 0.000000000e+00 0.000000000e+00
2.580000e+09 -7.538215497e+00 6.540882698e+01 2.615417822e+00 -3.423031573e-01 0.000000000e+00 0.000000000e+00 0.000000000e+00 0.000000000e+00
2.590000e+09 -7.521279220e+00 6.515085145e+01 2.615229541e+00 -3.433475551e-01 0.000000000e+00 0.000000000e+00 0.000000000e+00 0.000000000e+00
2.600000e+09 -7.504677911e+00 6.489408338e+01 2.615032321e+00 -3.443744018e-01 0.000000000e+00 0.000000000e+00 0.000000000e+00 0.000000000e+00
2.610000e+09 -7.488612814e+00 6.463856126e+01 2.614831529e+00 -3.453789187e-01 0.000000000e+00 0.000000000e+00 0.000000000e+00 0.000000000e+00
2.620000e+09 -7.473267838e+00 6.438437879e+01 2.614633936e+00 -3.463577712e-01 0.000000000e+00 0.000000000e+00 0.000000000e+00 0.000000000e+00
2.630000e+09 -7.458795001e+00 6.413168036e+01 2.614447352e+00 -3.473094722e-01 0.000000000e+00 0.000000000e+00 0.000000000e+00 0.000000000e+00
2.640000e+09 -7.445301090e+00 6.388065270e+01 2.614280141e+00 -3.482346906e-01 0.000000000e+00 0.000000000e+00 0.000000000e+00 0.000000000e+00
2.650000e+09 -7.432836477e+00 6.363151312e+01 2.614140659e+00 -3.491364380e-01 0.000000000e+00 0.000000000e+00 0.000000000e+00 0.000000000e+00
2.660000e+09 -7.421386994e+00 6.338449478e+01 2.614036635e+00 -3.500201082e-01 0.000000000e+00 0.000000000e+00 0.000000000e+00 0.000000000e+00
2.670000e+09 -7.410869605e+00 6.313982993e+01 2.613974534e+00 -3.508933578e-01 0.000000000e+00 0.000000000e+00 0.000000000e+00 0.000000000e+00
2.680000e+09 -7.401132389e+00 6.289773194e+01 2.613958943e+00 -3.517658199e-01 0.000000000e+00 0.000000000e+00 0.000000000e+00 0.000000000e+00
2.690000e+09 -7.391959154e+00 6.265837729e+01 2.613992031e+00 -3.526486571e-01 0.000000000e+00 0.000000000e+00 0.000000000e+00 0.000000000e+00
2.700000e+09 -7.383078680e+00 6.242188866e+01 2.614073107e+00 -3.535539684e-01 0.000000000e+00 0.000000000e+00 0.000000000e+00 0.000000000e+00
2.710000e+09 -7.374178358e+00 6.218832036e+01 2.614198328e+00 -3.544940752e-01 0.000000000e+00 0.000000000e+00 0.000000000e+00 0.000000000e+00
2.720000e+09 -7.364921650e+00 6.195764702e+01 2.614360585e+00 -3.554807212e-01 0.000000000e+00 0.000000000e+00 0.000000000e+00 0.000000000e+00
2.730000e+09 -7.354968569e+00 6.172975680e+01 2.614549589e+00 -3.565242295e-01 0.000000000e+00 0.000000000e+00 0.000000000e+00 0.000000000e+00
2.740000e+09 -7.343998116e+00 6.150444967e+01 2.614752177e+00 -3.576326664e-01 0.000000000e+00 0.000000000e+00 0.000000000e+00 0.000000000e+00
2.750000e+09 -7.331731382e+00 6.128144141e+01 2.614952830e+00 -3.588110666e-01 0.000000000e+00 0.000000000e+00 0.000000000e+00 0.000000000e+00
2.760000e+09 -7.317953904e+00 6.106037366e+01 2.615134407e+00 -3.600607747e-01 0.000000000e+00 0.000000000e+00 0.000000000e+00 0.000000000e+00
2.770000e+09 -7.302535753e+00 6.084082969e+01 2.615279052e+00 -3.613789596e-01 0.000000000e+00 0.000000000e+00 0.000000000e+00 0.000000000e+00
2.780000e+09 -7.285447834e+00 6.062235565e+01 2.615369255e+00 -3.627583495e-01 0.000000000e+00 0.000000000e+00 0.000000000e+00 0.000000000e+00
2.790000e+09 -7.266772978e+00 6.040448623e+01 2.615388991e+00 -3.641872301e-01 0.000000000e+00 0.000000000e+00 0.000000000e+00 0.000000000e+00
2.800000e+09 -7.246710601e+00 6.018677357e+01 2.615324893e+00 -3.656497338e-01 0.000000000e+00 0.000000000e+00 0.000000000e+00 0.000000000e+00
2.810000e+09 -7.225573989e+00 5.996881779e+01 2.615167370e+00 -3.671264324e-01 0.000000000e+00 0.000000000e+00 0.000000000e+00 0.000000000e+00
2.820000e+09 -7.203779716e+00 5.975029722e+01 2.614911599e+00 -3.685952265e-01 0.000000000e+00 0.000000000e+00 0.000000000e+00 0.000000000e+00
2.830000e+09 -7.181829146e+00 5.953099634e+01 2.614558309e+00 -3.700325024e-01 0.000000000e+00 0.000000000e+00 0.000000000e+00 0.000000000e+00
2.840000e+09 -7.160282534e+00 5.931082933e+01 2.614114287e+00 -3.714145097e-01 0.000000000e+00 0.000000000e+00 0.000000000e+00 0.000000000e+00
2.850000e+09 -7.139726797e+00 5.908985734e+01 2.613592543e+00 -3.727188890e-01 0.000000000e+00 0.000000000e+00 0.000000000e+00 0.000000000e+00
2.860000e+09 -7.120738526e+00 5.886829763e+01 2.613012097e+00 -3.739262646e-01 0.000000000e+00 0.000000000e+00 0.000000000e+00 0.000000000e+00
2.870000e+09 -7.103844270e+00 5.864652363e+01 2.612397354e+00 -3.750218069e-01 0.000000000e+00 0.000000000e+00 0.000000000e+00 0.000000000e+00
2.880000e+09 -7.089480432e+00 5.842505482e+01 2.611777098e+00 -3.759966623e-01 0.000000000e+00 0.000000000e+00 0.000000000e+00 0.000000000e+00
2.890000e+09 -7.077955277e+00 5.820453661e+01 2.611183107e+00 -3.768491505e-01 0.000000000e+00 0.000000000e+00 0.000000000e+00 0.000000000e+00
2.900000e+09 -7.069415557e+00 5.798571063e+01 2.610648460e+00 -3.775856400e-01 0.000000000e+00 0.000000000e+00 0.000000000e+00 0.000000000e+00
2.910000e+09 -7.063820102e+00 5.776937653e+01 2.610205615e+00 -3.782210233e-01 0.000000000e+00 0.000000000e+00 0.000000000e+00 0.000000000e+00
2.920000e+09 -7.060922399e+00 5.755634693e+01 2.609884345e+00 -3.787787361e-01 0.000000000e+00 0.000000000e+00 0.000000000e+00 0.000000000e+00
2.930000e+09 -7.060263792e+00 5.734739773e+01 2.609709635e+00 -3.792902849e-01 0.000000000e+00 0.000000000e+00 0.000000000e+00 0.000000000e+00
2.940000e+09 -7.061178429e+00 5.714321615e+01 2.609699663e+00 -3.797942715e-01 0.000000000e+00 0.000000000e+00 0.000000000e+00 0.000000000e+00
2.950000e+09 -7.062810545e+00 5.694434917e+01 2.609863979e+00 -3.803349270e-01 0.000000000e+00 0.000000000e+00 0.000000000e+00 0.000000000e+00
2.960000e+09 -7.064144142e+00 5.675115511e+01 2.610201973e+00 -3.809601916e-01 0.000000000e+00 0.000000000e+00 0.000000000e+00 0.000000000e+00
2.970000e+09 -7.064044527e+00 5.656376131e+01 2.610701775e+00 -3.817193980e-01 0.000000000e+00 0.000000000e+00 0.000000000e+00 0.000000000e+00
2.980000e+09 -7.061310653e+00 5.638203045e+01 2.611339650e+00 -3.826606412e-01 0.000000000e+00 0.000000000e+00 0.000000000e+00 0.000000000e+00
2.990000e+09 -7.054736563e+00 5.620553836e+01 2.612079994e+00 -3.838279367e-01 0.000000000e+00 0.000000000e+00 0.000000000e+00 0.000000000e+00
3.000000e+09 -7.043179688e+00 5.603356565e+01 2.612875995e+00 -3.852582943e-01 0.000000000e+00 0.000000000e+00 0.000000000e+00 0.000000000e+00
