! rfsim (KiCad + openEMS)
# HZ S RI R 50
5.000000e+08 -4.805091631e-03 -1.492374235e-02 9.897120631e-01 -9.838197744e-02 0.000000000e+00 0.000000000e+00 0.000000000e+00 0.000000000e+00
5.100000e+08 -4.861182635e-03 -1.520257576e-02 9.895522673e-01 -1.002581532e-01 0.000000000e+00 0.000000000e+00 0.000000000e+00 0.000000000e+00
5.200000e+08 -4.918080843e-03 -1.548255479e-02 9.893917142e-01 -1.021384367e-01 0.000000000e+00 0.000000000e+00 0.000000000e+00 0.000000000e+00
5.300000e+08 -4.975891622e-03 -1.576365301e-02 9.892299544e-01 -1.040227934e-01 0.000000000e+00 0.000000000e+00 0.000000000e+00 0.000000000e+00
5.400000e+08 -5.034714695e-03 -1.604583920e-02 9.890665618e-01 -1.059111709e-01 0.000000000e+00 0.000000000e+00 0.000000000e+00 0.000000000e+00
5.500000e+08 -5.094644155e-03 -1.632907785e-02 9.889011336e-01 -1.078035010e-01 0.000000000e+00 0.000000000e+00 0.000000000e+00 0.000000000e+00
5.600000e+08 -5.155768501e-03 -1.661332965e-02 9.887332906e-01 -1.096997014e-01 0.000000000e+00 0.000000000e+00 0.000000000e+00 0.000000000e+00
5.700000e+08 -5.218170706e-03 -1.689855199e-02 9.885626760e-01 -1.115996776e-01 0.000000000e+00 0.000000000e+00 0.000000000e+00 0.000000000e+00
5.800000e+08 -5.281928306e-03 -1.718469935e-02 9.883889559e-01 -1.135033236e-01 0.000000000e+00 0.000000000e+00 0.000000000e+00 0.000000000e+00
5.900000e+08 -5.347113498e-03 -1.747172377e-02 9.882118184e-01 -1.154105242e-01 0.000000000e+00 0.000000000e+00 0.000000000e+00 0.000000000e+00
6.000000e+08 -5.413793262e-03 -1.775957519e-02 9.880309732e-01 -1.173211556e-01 0.000000000e+00 0.000000000e+00 0.000000000e+00 0.000000000e+00
6.100000e+08 -5.482029495e-03 -1.804820180e-02 9.878461511e-01 -1.192350868e-01 0.000000000e+00 0.000000000e+00 0.000000000e+00 0.000000000e+00
6.200000e+08 -5.551879145e-03 -1.833755039e-02 9.876571033e-01 -1.211521808e-01 0.000000000e+00 0.000000000e+00 0.000000000e+00 0.000000000e+00
6.300000e+08 -5.623394368e-03 -1.862756662e-02 9.874636009e-01 -1.230722956e-01 0.000000000e+00 0.000000000e+00 0.000000000e+00 0.000000000e+00
6.400000e+08 -5.696622681e-03 -1.891819532e-02 9.872654339e-01 -1.249952850e-01 0.000000000e+00 0.000000000e+00 0.000000000e+00 0.000000000e+00
6.500000e+08 -5.771607123e-03 -1.920938077e-02 9.870624110e-01 -1.269209995e-01 0.000000000e+00 0.000000000e+00 0.000000000e+00 0.000000000e+00
6.600000e+08 -5.848386427e-03 -1.950106688e-02 9.868543586e-01 -1.288492873e-01 0.000000000e+00 0.000000000e+00 0.000000000e+00 0.000000000e+00
6.700000e+08 -5.926995181e-03 -1.979319745e-02 9.866411201e-01 -1.307799948e-01 0.000000000e+00 0.000000000e+00 0.000000000e+00 0.000000000e+00
6.800000e+08 -6.007464003e-03 -2.008571634e-02 9.864225552e-01 -1.327129674e-01 0.000000000e+00 0.000000000e+00 0.000000000e+00 0.000000000e+00
6.900000e+08 -6.089819713e-03 -2.037856768e-02 9.861985393e-01 -1.346480500e-01 0.000000000e+00 0.000000000e+00 0.000000000e+00 0.000000000e+00
7.000000e+08 -6.174085502e-03 -2.067169603e-02 9.859689626e-01 -1.365850877e-01 0.000000000e+00 0.000000000e+00 0.000000000e+00 0.000000000e+00
7.100000e+08 -6.260281105e-03 -2.096504649e-02 9.857337295e-01 -1.385239262e-01 0.000000000e+00 0.000000000e+00 0.000000000e+00 0.000000000e+00
7.200000e+08 -6.348422968e-03 -2.125856489e-02 9.854927578e-01 -1.404644125e-01 0.000000000e+00 0.000000000e+00 0.000000000e+00 0.000000000e+00
7.300000e+08 -6.438524420e-03 -2.155219786e-02 9.852459783e-01 -1.424063949e-01 0.000000000e+00 0.000000000e+00 0.000000000e+00 0.000000000e+00
7.400000e+08 -6.530595834e-03 -2.184589299e-02 9.849933335e-01 -1.443497238e-01 0.000000000e+00 0.000000000e+00 0.000000000e+00 0.000000000e+00
7.500000e+08 -6.624644793e-03 -2.213959888e-02 9.847347777e-01 -1.462942518e-01 0.000000000e+00 0.000000000e+00 0.000000000e+00 0.000000000e+00
7.600000e+08 -6.720676247e-03 -2.243326523e-02 9.844702755e-01 -1.482398341e-01 0.000000000e+00 0.000000000e+00 0.000000000e+00 0.000000000e+00
7.700000e+08 -6.818692674e-03 -2.272684296e-02 9.841998020e-01 -1.501863287e-01 0.000000000e+00 0.000000000e+00 0.000000000e+00 0.000000000e+00
7.800000e+08 -6.918694224e-03 -2.302028420e-02 9.839233415e-01 -1.521335968e-01 0.000000000e+00 0.000000000e+00 0.000000000e+00 0.000000000e+00
7.900000e+08 -7.020678879e-03 -2.331354243e-02 9.836408871e-01 -1.540815028e-01 0.000000000e+00 0.000000000e+00 0.000000000e+00 0.000000000e+00
8.000000e+08 -7.124642588e-03 -2.360657245e-02 9.833524404e-01 -1.560299145e-01 0.000000000e+00 0.000000000e+00 0.000000000e+00 0.000000000e+00
8.100000e+08 -7.230579411e-03 -2.389933044e-02 9.830580103e-01 -1.579787036e-01 0.000000000e+00 0.000000000e+00 0.000000000e+00 0.000000000e+00
8.200000e+08 -7.338481656e-03 -2.419177404e-02 9.827576133e-01 -1.599277453e-01 0.000000000e+00 0.000000000e+00 0.000000000e+00 0.000000000e+00
8.300000e+08 -7.448340009e-03 -2.448386228e-02 9.824512719e-01 -1.618769188e-01 0.000000000e+00 0.000000000e+00 0.000000000e+00 0.000000000e+00
8.400000e+08 -7.560143660e-03 -2.477555570e-02 9.821390150e-01 -1.638261072e-01 0.000000000e+00 0.000000000e+00 0.000000000e+00 0.000000000e+00
8.500000e+08 -7.673880429e-03 -2.506681629e-02 9.818208770e-01 -1.657751978e-01 0.000000000e+00 0.000000000e+00 0.000000000e+00 0.000000000e+00
8.600000e+08 -7.789536878e-03 -2.535760750e-02 9.814968973e-01 -1.677240818e-01 0.000000000e+00 0.000000000e+00 0.000000000e+00 0.000000000e+00
8.700000e+08 -7.907098427e-03 -2.564789428e-02 9.811671199e-01 -1.696726547e-01 0.000000000e+00 0.000000000e+00 0.000000000e+00 0.000000000e+00
8.800000e+08 -8.026549465e-03 -2.593764305e-02 9.808315930e-01 -1.716208159e-01 0.000000000e+00 0.000000000e+00 0.000000000e+00 0.000000000e+00
8.900000e+08 -8.147873447e-03 -2.622682169e-02 9.804903685e-01 -1.735684693e-01 0.000000000e+00 0.000000000e+00 0.000000000e+00 0.000000000e+00
9.000000e+08 -8.271052998e-03 -2.651539954e-02 9.801435015e-01 -1.755155226e-01 0.000000000e+00 0.000000000e+00 0.000000000e+00 0.000000000e+00
9.100000e+08 -8.396070008e-03 -2.680334737e-02 9.797910504e-01 -1.774618880e-01 0.000000000e+00 0.000000000e+00 0.000000000e+00 0.000000000e+00
9.200000e+08 -8.522905718e-03 -2.709063736e-02 9.794330758e-01 -1.794074814e-01 0.000000000e+00 0.000000000e+00 0.000000000e+00 0.000000000e+00
9.300000e+08 -8.651540808e-03 -2.737724312e-02 9.790696408e-01 -1.813522232e-01 0.000000000e+00 0.000000000e+00 0.000000000e+00 0.000000000e+00
9.400000e+08 -8.781955479e-03 -2.766313959e-02 9.787008103e-01 -1.832960375e-01 0.000000000e+00 0.000000000e+00 0.000000000e+00 0.000000000e+00
9.500000e+08 -8.914129528e-03 -2.794830310e-02 9.783266507e-01 -1.852388525e-01 0.000000000e+00 0.000000000e+00 0.000000000e+00 0.000000000e+00
9.600000e+08 -9.048042424e-03 -2.823271126e-02 9.779472300e-01 -1.871806003e-01 0.000000000e+00 0.000000000e+00 0.000000000e+00 0.000000000e+00
9.700000e+08 -9.183673373e-03 -2.851634298e-02 9.775626168e-01 -1.891212170e-01 0.000000000e+00 0.000000000e+00 0.000000000e+00 0.000000000e+00
9.800000e+08 -9.321001385e-03 -2.879917845e-02 9.771728807e-01 -1.910606421e-01 0.000000000e+00 0.000000000e+00 0.000000000e+00 0.000000000e+00
9.900000e+08 -9.460005335e-03 -2.908119904e-02 9.767780920e-01 -1.929988191e-01 0.000000000e+00 0.000000000e+00 0.000000000e+00 0.000000000e+00
1.000000e+09 -9.600664021e-03 -2.936238735e-02 9.763783209e-01 -1.949356951e-01 0.000000000e+00 0.000000000e+00 0.000000000e+00 0.000000000e+00
1.010000e+09 -9.742956216e-03 -2.964272710e-02 9.759736380e-01 -1.968712207e-01 0.000000000e+00 0.000000000e+00 0.000000000e+00 0.000000000e+00
1.020000e+09 -9.886860720e-03 -2.992220315e-02 9.755641134e-01 -1.988053498e-01 0.000000000e+00 0.000000000e+00 0.000000000e+00 0.000000000e+00
1.030000e+09 -1.003235641e-02 -3.020080143e-02 9.751498173e-01 -2.007380398e-01 0.000000000e+00 0.000000000e+00 0.000000000e+00 0.000000000e+00
1.040000e+09 -1.017942226e-02 -3.047850891e-02 9.747308192e-01 -2.026692515e-01 0.000000000e+00 0.000000000e+00 0.000000000e+00 0.000000000e+00
1.050000e+09 -1.032803744e-02 -3.075531359e-02 9.743071878e-01 -2.045989485e-01 0.000000000e+00 0.000000000e+00 0.000000000e+00 0.000000000e+00
1.060000e+09 -1.047818128e-02 -3.103120442e-02 9.738789914e-01 -2.065270977e-01 0.000000000e+00 0.000000000e+00 0.000000000e+00 0.000000000e+00
1.070000e+09 -1.062983336e-02 -3.130617127e-02 9.734462969e-01 -2.084536691e-01 0.000000000e+00 0.000000000e+00 0.000000000e+00 0.000000000e+00
1.080000e+09 -1.078297351e-02 -3.158020494e-02 9.730091704e-01 -2.103786353e-01 0.000000000e+00 0.000000000e+00 0.000000000e+00 0.000000000e+00
1.090000e+09 -1.093758185e-02 -3.185329705e-02 9.725676768e-01 -2.123019718e-01 0.000000000e+00 0.000000000e+00 0.000000000e+00 0.000000000e+00
1.100000e+09 -1.109363883e-02 -3.212544007e-02 9.721218796e-01 -2.142236567e-01 0.000000000e+00 0.000000000e+00 0.000000000e+00 0.000000000e+00
1.110000e+09 -1.125112525e-02 -3.239662723e-02 9.716718411e-01 -2.161436710e-01 0.000000000e+00 0.000000000e+00 0.000000000e+00 0.000000000e+00
1.120000e+09 -1.141002224e-02 -3.266685252e-02 9.712176220e-01 -2.180619977e-01 0.000000000e+00 0.000000000e+00 0.000000000e+00 0.000000000e+00
1.130000e+09 -1.157031135e-02 -3.293611064e-02 9.707592815e-01 -2.199786225e-01 0.000000000e+00 0.000000000e+00 0.000000000e+00 0.000000000e+00
1.140000e+09 -1.173197452e-02 -3.320439697e-02 9.702968771e-01 -2.218935333e-01 0.000000000e+00 0.000000000e+00 0.000000000e+00 0.000000000e+00
1.150000e+09 -1.189499410e-02 -3.347170751e-02 9.698304648e-01 -2.238067203e-01 0.000000000e+00 0.000000000e+00 0.000000000e+00 0.000000000e+00
1.160000e+09 -1.205935288e-02 -3.373803889e-02 9.693600987e-01 -2.257181756e-01 0.000000000e+00 0.000000000e+00 0.000000000e+00 0.000000000e+00
1.170000e+09 -1.222503410e-02 -3.400338829e-02 9.688858311e-01 -2.276278935e-01 0.000000000e+00 0.000000000e+00 0.000000000e+00 0.000000000e+00
1.180000e+09 -1.239202145e-02 -3.426775346e-02 9.684077128e-01 -2.295358701e-01 0.000000000e+00 0.000000000e+00 0.000000000e+00 0.000000000e+00
1.190000e+09 -1.256029908e-02 -3.453113263e-02 9.679257923e-01 -2.314421033e-01 0.000000000e+00 0.000000000e+00 0.000000000e+00 0.000000000e+00
1.200000e+09 -1.272985162e-02 -3.479352452e-02 9.674401167e-01 -2.333465928e-01 0.000000000e+00 0.000000000e+00 0.000000000e+00 0.000000000e+00
1.210000e+09 -1.290066418e-02 -3.505492829e-02 9.669507308e-01 -2.352493400e-01 0.000000000e+00 0.000000000e+00 0.000000000e+00 0.000000000e+00
1.220000e+09 -1.307272233e-02 -3.531534351e-02 9.664576776e-01 -2.371503477e-01 0.000000000e+00 0.000000000e+00 0.000000000e+00 0.000000000e+00
1.230000e+09 -1.324601216e-02 -3.557477014e-02 9.659609985e-01 -2.390496204e-01 0.000000000e+00 0.000000000e+00 0.000000000e+00 0.000000000e+00
1.240000e+09 -1.342052023e-02 -3.583320851e-02 9.654607324e-01 -2.409471637e-01 0.000000000e+00 0.000000000e+00 0.000000000e+00 0.000000000e+00
1.250000e+09 -1.359623359e-02 -3.609065926e-02 9.649569168e-01 -2.428429849e-01 0.000000000e+00 0.000000000e+00 0.000000000e+00 0.000000000e+00
1.260000e+09 -1.377313978e-02 -3.634712333e-02 9.644495870e-01 -2.447370921e-01 0.000000000e+00 0.000000000e+00 0.000000000e+00 0.000000000e+00
1.270000e+09 -1.395122683e-02 -3.660260197e-02 9.639387764e-01 -2.466294948e-01 0.000000000e+00 0.000000000e+00 0.000000000e+00 0.000000000e+00
1.280000e+09 -1.413048326e-02 -3.685709665e-02 9.634245165e-01 -2.485202037e-01 0.000000000e+00 0.000000000e+00 0.000000000e+00 0.000000000e+00
1.290000e+09 -1.431089808e-02 -3.711060906e-02 9.629068370e-01 -2.504092303e-01 0.000000000e+00 0.000000000e+00 0.000000000e+00 0.000000000e+00
1.300000e+09 -1.449246077e-02 -3.736314113e-02 9.623857656e-01 -2.522965870e-01 0.000000000e+00 0.000000000e+00 0.000000000e+00 0.000000000e+00
1.310000e+09 -1.467516131e-02 -3.761469493e-02 9.618613281e-01 -2.541822873e-01 0.000000000e+00 0.000000000e+00 0.000000000e+00 0.000000000e+00
1.320000e+09 -1.485899012e-02 -3.786527271e-02 9.613335485e-01 -2.560663453e-01 0.000000000e+00 0.000000000e+00 0.000000000e+00 0.000000000e+00
1.330000e+09 -1.504393811e-02 -3.811487686e-02 9.608024492e-01 -2.579487760e-01 0.000000000e+00 0.000000000e+00 0.000000000e+00 0.000000000e+00
1.340000e+09 -1.522999666e-02 -3.836350987e-02 9.602680504e-01 -2.598295949e-01 0.000000000e+00 0.000000000e+00 0.000000000e+00 0.000000000e+00
1.350000e+09 -1.541715759e-02 -3.861117433e-02 9.597303709e-01 -2.617088182e-01 0.000000000e+00 0.000000000e+00 0.000000000e+00 0.000000000e+00
1.360000e+09 -1.560541317e-02 -3.885787292e-02 9.591894274e-01 -2.635864626e-01 0.000000000e+00 0.000000000e+00 0.000000000e+00 0.000000000e+00
1.370000e+09 -1.579475613e-02 -3.910360835e-02 9.586452353e-01 -2.654625454e-01 0.000000000e+00 0.000000000e+00 0.000000000e+00 0.000000000e+00
1.380000e+09 -1.598517961e-02 -3.934838340e-02 9.580978079e-01 -2.673370842e-01 0.000000000e+00 0.000000000e+00 0.000000000e+00 0.000000000e+00
1.390000e+09 -1.617667719e-02 -3.959220086e-02 9.575471573e-01 -2.692100970e-01 0.000000000e+00 0.000000000e+00 0.000000000e+00 0.000000000e+00
1.400000e+09 -1.636924287e-02 -3.983506351e-02 9.569932936e-01 -2.710816021e-01 0.000000000e+00 0.000000000e+00 0.000000000e+00 0.000000000e+00
1.410000e+09 -1.656287105e-02 -4.007697416e-02 9.564362255e-01 -2.729516181e-01 0.000000000e+00 0.000000000e+00 0.000000000e+00 0.000000000e+00
1.420000e+09 -1.675755654e-02 -4.031793555e-02 9.558759602e-01 -2.748201640e-01 0.000000000e+00 0.000000000e+00 0.000000000e+00 0.000000000e+00
1.430000e+09 -1.695329454e-02 -4.055795042e-02 9.553125033e-01 -2.766872585e-01 0.000000000e+00 0.000000000e+00 0.000000000e+00 0.000000000e+00
1.440000e+09 -1.715008061e-02 -4.079702142e-02 9.547458592e-01 -2.785529209e-01 0.000000000e+00 0.000000000e+00 0.000000000e+00 0.000000000e+00
1.450000e+09 -1.734791073e-02 -4.103515116e-02 9.541760304e-01 -2.804171703e-01 0.000000000e+00 0.000000000e+00 0.000000000e+00 0.000000000e+00
1.460000e+09 -1.754678118e-02 -4.127234217e-02 9.536030185e-01 -2.822800259e-01 0.000000000e+00 0.000000000e+00 0.000000000e+00 0.000000000e+00
1.470000e+09 -1.774668865e-02 -4.150859686e-02 9.530268235e-01 -2.841415068e-01 0.000000000e+00 0.000000000e+00 0.000000000e+00 0.000000000e+00
1.480000e+09 -1.794763013e-02 -4.174391756e-02 9.524474441e-01 -2.860016322e-01 0.000000000e+00 0.000000000e+00 0.000000000e+00 0.000000000e+00
1.490000e+09 -1.814960297e-02 -4.197830648e-02 9.518648780e-01 -2.878604209e-01 0.000000000e+00 0.000000000e+00 0.000000000e+00 0.000000000e+00
1.500000e+09 -1.835260481e-02 -4.221176571e-02 9.512791213e-01 -2.897178919e-01 0.000000000e+00 0.000000000e+00 0.000000000e+00 0.000000000e+00
1.510000e+09 -1.855663364e-02 -4.244429718e-02 9.506901692e-01 -2.915740637e-01 0.000000000e+00 0.000000000e+00 0.000000000e+00 0.000000000e+00
1.520000e+09 -1.876168771e-02 -4.267590270e-02 9.500980157e-01 -2.934289549e-01 0.000000000e+00 0.000000000e+00 0.000000000e+00 0.000000000e+00
1.530000e+09 -1.896776560e-02 -4.290658391e-02 9.495026537e-01 -2.952825835e-01 0.000000000e+00 0.000000000e+00 0.000000000e+00 0.000000000e+00
1.540000e+09 -1.917486612e-02 -4.313634228e-02 9.489040751e-01 -2.971349673e-01 0.000000000e+00 0.000000000e+00 0.000000000e+00 0.000000000e+00
1.550000e+09 -1.938298840e-02 -4.336517912e-02 9.483022706e-01 -2.989861240e-01 0.000000000e+00 0.000000000e+00 0.000000000e+00 0.000000000e+00
1.560000e+09 -1.959213179e-02 -4.359309555e-02 9.476972303e-01 -3.008360705e-01 0.000000000e+00 0.000000000e+00 0.000000000e+00 0.000000000e+00
1.570000e+09 -1.980229589e-02 -4.382009249e-02 9.470889429e-01 -3.026848237e-01 0.000000000e+00 0.000000000e+00 0.000000000e+00 0.000000000e+00
1.580000e+09 -2.001348055e-02 -4.404617069e-02 9.464773966e-01 -3.045323998e-01 0.000000000e+00 0.000000000e+00 0.000000000e+00 0.000000000e+00
1.590000e+09 -2.022568583e-02 -4.427133068e-02 9.458625787e-01 -3.063788146e-01 0.000000000e+00 0.000000000e+00 0.000000000e+00 0.000000000e+00
1.600000e+09 -2.043891202e-02 -4.449557276e-02 9.452444756e-01 -3.082240834e-01 0.000000000e+00 0.000000000e+00 0.000000000e+00 0.000000000e+00
1.610000e+09 -2.065315960e-02 -4.471889705e-02 9.446230729e-01 -3.100682210e-01 0.000000000e+00 0.000000000e+00 0.000000000e+00 0.000000000e+00
1.620000e+09 -2.086842922e-02 -4.494130341e-02 9.439983556e-01 -3.119112416e-01 0.000000000e+00 0.000000000e+00 0.000000000e+00 0.000000000e+00
1.630000e+09 -2.108472176e-02 -4.516279151e-02 9.433703081e-01 -3.137531587e-01 0.000000000e+00 0.000000000e+00 0.000000000e+00 0.000000000e+00
1.640000e+09 -2.130203822e-02 -4.538336075e-02 9.427389139e-01 -3.155939854e-01 0.000000000e+00 0.000000000e+00 0.000000000e+00 0.000000000e+00
1.650000e+09 -2.152037978e-02 -4.560301030e-02 9.421041561e-01 -3.174337340e-01 0.000000000e+00 0.000000000e+00 0.000000000e+00 0.000000000e+00
1.660000e+09 -2.173974778e-02 -4.582173910e-02 9.414660174e-01 -3.192724161e-01 0.000000000e+00 0.000000000e+00 0.000000000e+00 0.000000000e+00
1.670000e+09 -2.196014366e-02 -4.603954583e-02 9.408244795e-01 -3.211100427e-01 0.000000000e+00 0.000000000e+00 0.000000000e+00 0.000000000e+00
1.680000e+09 -2.218156901e-02 -4.625642892e-02 9.401795242e-01 -3.229466240e-01 0.000000000e+00 0.000000000e+00 0.000000000e+00 0.000000000e+00
1.690000e+09 -2.240402553e-02 -4.647238654e-02 9.395311324e-01 -3.247821695e-01 0.000000000e+00 0.000000000e+00 0.000000000e+00 0.000000000e+00
1.700000e+09 -2.262751501e-02 -4.668741660e-02 9.388792849e-01 -3.266166878e-01 0.000000000e+00 0.000000000e+00 0.000000000e+00 0.000000000e+00
1.710000e+09 -2.285203935e-02 -4.690151675e-02 9.382239620e-01 -3.284501869e-01 0.000000000e+00 0.000000000e+00 0.000000000e+00 0.000000000e+00
1.720000e+09 -2.307760052e-02 -4.711468437e-02 9.375651438e-01 -3.302826738e-01 0.000000000e+00 0.000000000e+00 0.000000000e+00 0.000000000e+00
1.730000e+09 -2.330420056e-02 -4.732691656e-02 9.369028100e-01 -3.321141546e-01 0.000000000e+00 0.000000000e+00 0.000000000e+00 0.000000000e+00
1.740000e+09 -2.353184155e-02 -4.753821018e-02 9.362369402e-01 -3.339446348e-01 0.000000000e+00 0.000000000e+00 0.000000000e+00 0.000000000e+00
1.750000e+09 -2.376052564e-02 -4.774856177e-02 9.355675136e-01 -3.357741188e-01 0.000000000e+00 0.000000000e+00 0.000000000e+00 0.000000000e+00
1.760000e+09 -2.399025501e-02 -4.795796763e-02 9.348945096e-01 -3.376026101e-01 0.000000000e+00 0.000000000e+00 0.000000000e+00 0.000000000e+00
1.770000e+09 -2.422103185e-02 -4.816642377e-02 9.342179070e-01 -3.394301113e-01 0.000000000e+00 0.000000000e+00 0.000000000e+00 0.000000000e+00
1.780000e+09 -2.445285838e-02 -4.837392591e-02 9.335376849e-01 -3.412566241e-01 0.000000000e+00 0.000000000e+00 0.000000000e+00 0.000000000e+00
1.790000e+09 -2.468573682e-02 -4.858046950e-02 9.328538221e-01 -3.430821491e-01 0.000000000e+00 0.000000000e+00 0.000000000e+00 0.000000000e+00
1.800000e+09 -2.491966936e-02 -4.878604970e-02 9.321662978e-01 -3.449066861e-01 0.000000000e+00 0.000000000e+00 0.000000000e+00 0.000000000e+00
1.810000e+09 -2.515465818e-02 -4.899066140e-02 9.314750907e-01 -3.467302337e-01 0.000000000e+00 0.000000000e+00 0.000000000e+00 0.000000000e+00
1.820000e+09 -2.539070544e-02 -4.919429917e-02 9.307801799e-01 -3.485527896e-01 0.000000000e+00 0.000000000e+00 0.000000000e+00 0.000000000e+00
1.830000e+09 -2.562781323e-02 -4.939695735e-02 9.300815445e-01 -3.503743504e-01 0.000000000e+00 0.000000000e+00 0.000000000e+00 0.000000000e+00
1.840000e+09 -2.586598360e-02 -4.959862994e-02 9.293791638e-01 -3.521949116e-01 0.000000000e+00 0.000000000e+00 0.000000000e+00 0.000000000e+00
1.850000e+09 -2.610521854e-02 -4.979931070e-02 9.286730174e-01 -3.540144678e-01 0.000000000e+00 0.000000000e+00 0.000000000e+00 0.000000000e+00
1.860000e+09 -2.634551994e-02 -4.999899308e-02 9.279630848e-01 -3.558330124e-01 0.000000000e+00 0.000000000e+00 0.000000000e+00 0.000000000e+00
1.870000e+09 -2.658688961e-02 -5.019767025e-02 9.272493460e-01 -3.576505376e-01 0.000000000e+00 0.000000000e+00 0.000000000e+00 0.000000000e+00
1.880000e+09 -2.682932926e-02 -5.039533511e-02 9.265317813e-01 -3.594670347e-01 0.000000000e+00 0.000000000e+00 0.000000000e+00 0.000000000e+00
1.890000e+09 -2.707284048e-02 -5.059198025e-02 9.258103713e-01 -3.612824938e-01 0.000000000e+00 0.000000000e+00 0.000000000e+00 0.000000000e+00
1.900000e+09 -2.731742473e-02 -5.078759803e-02 9.250850968e-01 -3.630969037e-01 0.000000000e+00 0.000000000e+00 0.000000000e+00 0.000000000e+00
1.910000e+09 -2.756308336e-02 -5.098218047e-02 9.243559393e-01 -3.649102524e-01 0.000000000e+00 0.000000000e+00 0.000000000e+00 0.000000000e+00
1.920000e+09 -2.780981752e-02 -5.117571936e-02 9.236228806e-01 -3.667225263e-01 0.000000000e+00 0.000000000e+00 0.000000000e+00 0.000000000e+00
1.930000e+09 -2.805762825e-02 -5.136820621e-02 9.228859029e-01 -3.685337111e-01 0.000000000e+00 0.000000000e+00 0.000000000e+00 0.000000000e+00
1.940000e+09 -2.830651637e-02 -5.155963224e-02 9.221449891e-01 -3.703437910e-01 0.000000000e+00 0.000000000e+00 0.000000000e+00 0.000000000e+00
1.950000e+09 -2.855648256e-02 -5.174998842e-02 9.214001226e-01 -3.721527491e-01 0.000000000e+00 0.000000000e+00 0.000000000e+00 0.000000000e+00
1.960000e+09 -2.880752727e-02 -5.193926545e-02 9.206512874e-01 -3.739605675e-01 0.000000000e+00 0.000000000e+00 0.000000000e+00 0.000000000e+00
1.970000e+09 -2.905965075e-02 -5.212745376e-02 9.198984680e-01 -3.757672268e-01 0.000000000e+00 0.000000000e+00 0.000000000e+00 0.000000000e+00
1.980000e+09 -2.931285302e-02 -5.231454354e-02 9.191416499e-01 -3.775727068e-01 0.000000000e+00 0.000000000e+00 0.000000000e+00 0.000000000e+00
1.990000e+09 -2.956713388e-02 -5.250052472e-02 9.183808189e-01 -3.793769857e-01 0.000000000e+00 0.000000000e+00 0.000000000e+00 0.000000000e+00
2.000000e+09 -2.982249288e-02 -5.268538699e-02 9.176159619e-01 -3.811800409e-01 0.000000000e+00 0.000000000e+00 0.000000000e+00 0.000000000e+00
2.010000e+09 -3.007892929e-02 -5.286911979e-02 9.168470665e-01 -3.829818482e-01 0.000000000e+00 0.000000000e+00 0.000000000e+00 0.000000000e+00
2.020000e+09 -3.033644214e-02 -5.305171232e-02 9.160741209e-01 -3.847823827e-01 0.000000000e+00 0.000000000e+00 0.000000000e+00 0.000000000e+00
2.030000e+09 -3.059503016e-02 -5.323315357e-02 9.152971146e-01 -3.865816179e-01 0.000000000e+00 0.000000000e+00 0.000000000e+00 0.000000000e+00
2.040000e+09 -3.085469178e-02 -5.341343228e-02 9.145160376e-01 -3.883795263e-01 0.000000000e+00 0.000000000e+00 0.000000000e+00 0.000000000e+00
2.050000e+09 -3.111542513e-02 -5.359253699e-02 9.137308811e-01 -3.901760793e-01 0.000000000e+00 0.000000000e+00 0.000000000e+00 0.000000000e+00
2.060000e+09 -3.137722801e-02 -5.377045605e-02 9.129416371e-01 -3.919712472e-01 0.000000000e+00 0.000000000e+00 0.000000000e+00 0.000000000e+00
2.070000e+09 -3.164009790e-02 -5.394717756e-02 9.121482988e-01 -3.937649988e-01 0.000000000e+00 0.000000000e+00 0.000000000e+00 0.000000000e+00
2.080000e+09 -3.190403193e-02 -5.412268949e-02 9.113508604e-01 -3.955573021e-01 0.000000000e+00 0.000000000e+00 0.000000000e+00 0.000000000e+00
2.090000e+09 -3.216902685e-02 -5.429697957e-02 9.105493172e-01 -3.973481240e-01 0.000000000e+00 0.000000000e+00 0.000000000e+00 0.000000000e+00
2.100000e+09 -3.243507908e-02 -5.447003540e-02 9.097436656e-01 -3.991374302e-01 0.000000000e+00 0.000000000e+00 0.000000000e+00 0.000000000e+00
2.110000e+09 -3.270218462e-02 -5.464184440e-02 9.089339032e-01 -4.009251852e-01 0.000000000e+00 0.000000000e+00 0.000000000e+00 0.000000000e+00
2.120000e+09 -3.297033910e-02 -5.481239383e-02 9.081200288e-01 -4.027113528e-01 0.000000000e+00 0.000000000e+00 0.000000000e+00 0.000000000e+00
2.130000e+09 -3.323953774e-02 -5.498167083e-02 9.073020426e-01 -4.044958954e-01 0.000000000e+00 0.000000000e+00 0.000000000e+00 0.000000000e+00
2.140000e+09 -3.350977532e-02 -5.514966240e-02 9.064799459e-01 -4.062787748e-01 0.000000000e+00 0.000000000e+00 0.000000000e+00 0.000000000e+00
2.150000e+09 -3.378104622e-02 -5.531635544e-02 9.056537414e-01 -4.080599514e-01 0.000000000e+00 0.000000000e+00 0.000000000e+00 0.000000000e+00
2.160000e+09 -3.405334436e-02 -5.548173672e-02 9.048234333e-01 -4.098393850e-01 0.000000000e+00 0.000000000e+00 0.000000000e+00 0.000000000e+00
2.170000e+09 -3.432666321e-02 -5.564579296e-02 9.039890270e-01 -4.116170344e-01 0.000000000e+00 0.000000000e+00 0.000000000e+00 0.000000000e+00
2.180000e+09 -3.460099578e-02 -5.580851078e-02 9.031505295e-01 -4.133928576e-01 0.000000000e+00 0.000000000e+00 0.000000000e+00 0.000000000e+00
2.190000e+09 -3.487633461e-02 -5.596987676e-02 9.023079492e-01 -4.151668118e-01 0.000000000e+00 0.000000000e+00 0.000000000e+00 0.000000000e+00
2.200000e+09 -3.515267173e-02 -5.612987744e-02 9.014612961e-01 -4.169388533e-01 0.000000000e+00 0.000000000e+00 0.000000000e+00 0.000000000e+00
2.210000e+09 -3.542999871e-02 -5.628849932e-02 9.006105816e-01 -4.187089379e-01 0.000000000e+00 0.000000000e+00 0.000000000e+00 0.000000000e+00
2.220000e+09 -3.570830657e-02 -5.644572894e-02 8.997558190e-01 -4.204770206e-01 0.000000000e+00 0.000000000e+00 0.000000000e+00 0.000000000e+00
2.230000e+09 -3.598758587e-02 -5.660155280e-02 8.988970228e-01 -4.222430560e-01 0.000000000e+00 0.000000000e+00 0.000000000e+00 0.000000000e+00
2.240000e+09 -3.626782659e-02 -5.675595749e-02 8.980342095e-01 -4.240069979e-01 0.000000000e+00 0.000000000e+00 0.000000000e+00 0.000000000e+00
2.250000e+09 -3.654901822e-02 -5.690892963e-02 8.971673972e-01 -4.257687999e-01 0.000000000e+00 0.000000000e+00 0.000000000e+00 0.000000000e+00
2.260000e+09 -3.683114968e-02 -5.706045592e-02 8.962966057e-01 -4.275284151e-01 0.000000000e+00 0.000000000e+00 0.000000000e+00 0.000000000e+00
2.270000e+09 -3.711420936e-02 -5.721052316e-02 8.954218566e-01 -4.292857963e-01 0.000000000e+00 0.000000000e+00 0.000000000e+00 0.000000000e+00
2.280000e+09 -3.739818508e-02 -5.735911830e-02 8.945431730e-01 -4.310408961e-01 0.000000000e+00 0.000000000e+00 0.000000000e+00 0.000000000e+00
2.290000e+09 -3.768306412e-02 -5.750622841e-02 8.936605804e-01 -4.327936670e-01 0.000000000e+00 0.000000000e+00 0.000000000e+00 0.000000000e+00
2.300000e+09 -3.796883317e-02 -5.765184077e-02 8.927741055e-01 -4.345440613e-01 0.000000000e+00 0.000000000e+00 0.000000000e+00 0.000000000e+00
2.310000e+09 -3.825547836e-02 -5.779594284e-02 8.918837772e-01 -4.362920316e-01 0.000000000e+00 0.000000000e+00 0.000000000e+00 0.000000000e+00
2.320000e+09 -3.854298525e-02 -5.793852232e-02 8.909896264e-01 -4.380375305e-01 0.000000000e+00 0.000000000e+00 0.000000000e+00 0.000000000e+00
2.330000e+09 -3.883133881e-02 -5.807956717e-02 8.900916855e-01 -4.397805108e-01 0.000000000e+00 0.000000000e+00 0.000000000e+00 0.000000000e+00
2.340000e+09 -3.912052344e-02 -5.821906566e-02 8.891899891e-01 -4.415209258e-01 0.000000000e+00 0.000000000e+00 0.000000000e+00 0.000000000e+00
2.350000e+09 -3.941052296e-02 -5.835700637e-02 8.882845737e-01 -4.432587293e-01 0.000000000e+00 0.000000000e+00 0.000000000e+00 0.000000000e+00
2.360000e+09 -3.970132062e-02 -5.849337823e-02 8.873754777e-01 -4.449938757e-01 0.000000000e+00 0.000000000e+00 0.000000000e+00 0.000000000e+00
2.370000e+09 -3.999289907e-02 -5.862817056e-02 8.864627415e-01 -4.467263202e-01 0.000000000e+00 0.000000000e+00 0.000000000e+00 0.000000000e+00
2.380000e+09 -4.028524041e-02 -5.876137314e-02 8.855464074e-01 -4.484560187e-01 0.000000000e+00 0.000000000e+00 0.000000000e+00 0.000000000e+00
2.390000e+09 -4.057832616e-02 -5.889297616e-02 8.846265196e-01 -4.501829284e-01 0.000000000e+00 0.000000000e+00 0.000000000e+00 0.000000000e+00
2.400000e+09 -4.087213728e-02 -5.902297034e-02 8.837031245e-01 -4.519070076e-01 0.000000000e+00 0.000000000e+00 0.000000000e+00 0.000000000e+00
2.410000e+09 -4.116665418e-02 -5.915134693e-02 8.827762701e-01 -4.536282158e-01 0.000000000e+00 0.000000000e+00 0.000000000e+00 0.000000000e+00
2.420000e+09 -4.146185673e-02 -5.927809776e-02 8.818460065e-01 -4.553465143e-01 0.000000000e+00 0.000000000e+00 0.000000000e+00 0.000000000e+00
2.430000e+09 -4.175772426e-02 -5.940321526e-02 8.809123859e-01 -4.570618658e-01 0.000000000e+00 0.000000000e+00 0.000000000e+00 0.000000000e+00
2.440000e+09 -4.205423558e-02 -5.952669253e-02 8.799754622e-01 -4.587742351e-01 0.000000000e+00 0.000000000e+00 0.000000000e+00 0.000000000e+00
2.450000e+09 -4.235136902e-02 -5.964852337e-02 8.790352911e-01 -4.604835890e-01 0.000000000e+00 0.000000000e+00 0.000000000e+00 0.000000000e+00
2.460000e+09 -4.264910241e-02 -5.976870233e-02 8.780919302e-01 -4.621898962e-01 0.000000000e+00 0.000000000e+00 0.000000000e+00 0.000000000e+00
2.470000e+09 -4.294741311e-02 -5.988722472e-02 8.771454391e-01 -4.638931284e-01 0.000000000e+00 0.000000000e+00 0.000000000e+00 0.000000000e+00
2.480000e+09 -4.324627806e-02 -6.000408672e-02 8.761958790e-01 -4.655932596e-01 0.000000000e+00 0.000000000e+00 0.000000000e+00 0.000000000e+00
2.490000e+09 -4.354567377e-02 -6.011928535e-02 8.752433126e-01 -4.672902667e-01 0.000000000e+00 0.000000000e+00 0.000000000e+00 0.000000000e+00
2.500000e+09 -4.384557640e-02 -6.023281859e-02 8.742878045e-01 -4.689841296e-01 0.000000000e+00 0.000000000e+00 0.000000000e+00 0.000000000e+00
2.510000e+09 -4.414596172e-02 -6.034468537e-02 8.733294208e-01 -4.706748318e-01 0.000000000e+00 0.000000000e+00 0.000000000e+00 0.000000000e+00
2.520000e+09 -4.444680520e-02 -6.045488565e-02 8.723682291e-01 -4.723623599e-01 0.000000000e+00 0.000000000e+00 0.000000000e+00 0.000000000e+00
2.530000e+09 -4.474808202e-02 -6.056342046e-02 8.714042984e-01 -4.740467046e-01 0.000000000e+00 0.000000000e+00 0.000000000e+00 0.000000000e+00
2.540000e+09 -4.504976716e-02 -6.067029195e-02 8.704376988e-01 -4.757278606e-01 0.000000000e+00 0.000000000e+00 0.000000000e+00 0.000000000e+00
2.550000e+09 -4.535183536e-02 -6.077550344e-02 8.694685018e-01 -4.774058265e-01 0.000000000e+00 0.000000000e+00 0.000000000e+00 0.000000000e+00
2.560000e+09 -4.565426126e-02 -6.087905946e-02 8.684967801e-01 -4.790806059e-01 0.000000000e+00 0.000000000e+00 0.000000000e+00 0.000000000e+00
2.570000e+09 -4.595701937e-02 -6.098096580e-02 8.675226069e-01 -4.807522068e-01 0.000000000e+00 0.000000000e+00 0.000000000e+00 0.000000000e+00
2.580000e+09 -4.626008421e-02 -6.108122959e-02 8.665460567e-01 -4.824206424e-01 0.000000000e+00 0.000000000e+00 0.000000000e+00 0.000000000e+00
2.590000e+09 -4.656343030e-02 -6.117985931e-02 8.655672043e-01 -4.840859311e-01 0.000000000e+00 0.000000000e+00 0.000000000e+00 0.000000000e+00
2.600000e+09 -4.686703226e-02 -6.127686484e-02 8.645861250e-01 -4.857480971e-01 0.000000000e+00 0.000000000e+00 0.000000000e+00 0.000000000e+00
2.610000e+09 -4.717086489e-02 -6.137225754e-02 8.636028945e-01 -4.874071700e-01 0.000000000e+00 0.000000000e+00 0.000000000e+00 0.000000000e+00
2.620000e+09 -4.747490322e-02 -6.146605028e-02 8.626175886e-01 -4.890631858e-01 0.000000000e+00 0.000000000e+00 0.000000000e+00 0.000000000e+00
2.630000e+09 -4.777912259e-02 -6.155825745e-02 8.616302828e-01 -4.907161870e-01 0.000000000e+00 0.000000000e+00 0.000000000e+00 0.000000000e+00
2.640000e+09 -4.808349875e-02 -6.164889508e-02 8.606410525e-01 -4.923662224e-01 0.000000000e+00 0.000000000e+00 0.000000000e+00 0.000000000e+00
2.650000e+09 -4.838800797e-02 -6.173798080e-02 8.596499723e-01 -4.940133479e-01 0.000000000e+00 0.000000000e+00 0.000000000e+00 0.000000000e+00
2.660000e+09 -4.869262708e-02 -6.182553393e-02 8.586571160e-01 -4.956576268e-01 0.000000000e+00 0.000000000e+00 0.000000000e+00 0.000000000e+00
2.670000e+09 -4.899733360e-02 -6.191157550e-02 8.576625562e-01 -4.972991294e-01 0.000000000e+00 0.000000000e+00 0.000000000e+00 0.000000000e+00
2.680000e+09 -4.930210586e-02 -6.199612830e-02 8.566663641e-01 -4.989379340e-01 0.000000000e+00 0.000000000e+00 0.000000000e+00 0.000000000e+00
2.690000e+09 -4.960692311e-02 -6.207921689e-02 8.556686091e-01 -5.005741269e-01 0.000000000e+00 0.000000000e+00 0.000000000e+00 0.000000000e+00
2.700000e+09 -4.991176560e-02 -6.216086762e-02 8.546693586e-01 -5.022078026e-01 0.000000000e+00 0.000000000e+00 0.000000000e+00 0.000000000e+00
2.710000e+09 -5.021661473e-02 -6.224110870e-02 8.536686774e-01 -5.038390638e-01 0.000000000e+00 0.000000000e+00 0.000000000e+00 0.000000000e+00
2.720000e+09 -5.052145321e-02 -6.231997017e-02 8.526666275e-01 -5.054680222e-01 0.000000000e+00 0.000000000e+00 0.000000000e+00 0.000000000e+00
2.730000e+09 -5.082626512e-02 -6.239748392e-02 8.516632675e-01 -5.070947982e-01 0.000000000e+00 0.000000000e+00 0.000000000e+00 0.000000000e+00
2.740000e+09 -5.113103614e-02 -6.247368374e-02 8.506586526e-01 -5.087195214e-01 0.000000000e+00 0.000000000e+00 0.000000000e+00 0.000000000e+00
2.750000e+09 -5.143575362e-02 -6.254860526e-02 8.496528336e-01 -5.103423305e-01 0.000000000e+00 0.000000000e+00 0.000000000e+00 0.000000000e+00
2.760000e+09 -5.174040676e-02 -6.262228599e-02 8.486458568e-01 -5.119633738e-01 0.000000000e+00 0.000000000e+00 0.000000000e+00 0.000000000e+00
2.770000e+09 -5.204498681e-02 -6.269476531e-02 8.476377635e-01 -5.135828090e-01 0.000000000e+00 0.000000000e+00 0.000000000e+00 0.000000000e+00
2.780000e+09 -5.234948715e-02 -6.276608440e-02 8.466285891e-01 -5.152008037e-01 0.000000000e+00 0.000000000e+00 0.000000000e+00 0.000000000e+00
2.790000e+09 -5.265390355e-02 -6.283628627e-02 8.456183631e-01 -5.168175348e-01 0.000000000e+00 0.000000000e+00 0.000000000e+00 0.000000000e+00
2.800000e+09 -5.295823428e-02 -6.290541569e-02 8.446071081e-01 -5.184331896e-01 0.000000000e+00 0.000000000e+00 0.000000000e+00 0.000000000e+00
2.810000e+09 -5.326248031e-02 -6.297351917e-02 8.435948395e-01 -5.200479647e-01 0.000000000e+00 0.000000000e+00 0.000000000e+00 0.000000000e+00
2.820000e+09 -5.356664552e-02 -6.304064484e-02 8.425815645e-01 -5.216620667e-01 0.000000000e+00 0.000000000e+00 0.000000000e+00 0.000000000e+00
2.830000e+09 -5.387073686e-02 -6.310684246e-02 8.415672819e-01 -5.232757121e-01 0.000000000e+00 0.000000000e+00 0.000000000e+00 0.000000000e+00
2.840000e+09 -5.417476455e-02 -6.317216329e-02 8.405519813e-01 -5.248891268e-01 0.000000000e+00 0.000000000e+00 0.000000000e+00 0.000000000e+00
2.850000e+09 -5.447874230e-02 -6.323665999e-02 8.395356422e-01 -5.265025463e-01 0.000000000e+00 0.000000000e+00 0.000000000e+00 0.000000000e+00
2.860000e+09 -5.478268748e-02 -6.330038653e-02 8.385182334e-01 -5.281162152e-01 0.000000000e+00 0.000000000e+00 0.000000000e+00 0.000000000e+00
2.870000e+09 -5.508662136e-02 -6.336339807e-02 8.374997124e-01 -5.297303874e-01 0.000000000e+00 0.000000000e+00 0.000000000e+00 0.000000000e+00
2.880000e+09 -5.539056929e-02 -6.342575081e-02 8.364800244e-01 -5.313453253e-01 0.000000000e+00 0.000000000e+00 0.000000000e+00 0.000000000e+00
2.890000e+09 -5.569456094e-02 -6.348750182e-02 8.354591017e-01 -5.329612996e-01 0.000000000e+00 0.000000000e+00 0.000000000e+00 0.000000000e+00
2.900000e+09 -5.599863047e-02 -6.354870887e-02 8.344368629e-01 -5.345785890e-01 0.000000000e+00 0.000000000e+00 0.000000000e+00 0.000000000e+00
2.910000e+09 -5.630281679e-02 -6.360943028e-02 8.334132120e-01 -5.361974792e-01 0.000000000e+00 0.000000000e+00 0.000000000e+00 0.000000000e+00
2.920000e+09 -5.660716374e-02 -6.366972463e-02 8.323880374e-01 -5.378182629e-01 0.000000000e+00 0.000000000e+00 0.000000000e+00 0.000000000e+00
2.930000e+09 -5.691172031e-02 -6.372965061e-02 8.313612115e-01 -5.394412387e-01 0.000000000e+00 0.000000000e+00 0.000000000e+00 0.000000000e+00
2.940000e+09 -5.721654084e-02 -6.378926669e-02 8.303325893e-01 -5.410667104e-01 0.000000000e+00 0.000000000e+00 0.000000000e+00 0.000000000e+00
2.950000e+09 -5.752168525e-02 -6.384863088e-02 8.293020079e-01 -5.426949861e-01 0.000000000e+00 0.000000000e+00 0.000000000e+00 0.000000000e+00
2.960000e+09 -5.782721920e-02 -6.390780044e-02 8.282692856e-01 -5.443263772e-01 0.000000000e+00 0.000000000e+00 0.000000000e+00 0.000000000e+00
2.970000e+09 -5.813321433e-02 -6.396683153e-02 8.272342206e-01 -5.459611974e-01 0.000000000e+00 0.000000000e+00 0.000000000e+00 0.000000000e+00
2.980000e+09 -5.843974839e-02 -6.402577886e-02 8.261965906e-01 -5.475997615e-01 0.000000000e+00 0.000000000e+00 0.000000000e+00 0.000000000e+00
2.990000e+09 -5.874690550e-02 -6.408469533e-02 8.251561516e-01 -5.492423839e-01 0.000000000e+00 0.000000000e+00 0.000000000e+00 0.000000000e+00
3.000000e+09 -5.905477621e-02 -6.414363159e-02 8.241126371e-01 -5.508893773e-01 0.000000000e+00 0.000000000e+00 0.000000000e+00 0.000000000e+00
