! rfsim (KiCad + openEMS)
# HZ S RI R 50
5.000000e+08 -4.455335878e-03 -1.491805654e-02 9.910769572e-01 -9.833204466e-02 0.000000000e+00 0.000000000e+00 0.000000000e+00 0.000000000e+00
5.100000e+08 -4.523999016e-03 -1.521811587e-02 9.908696311e-01 -1.002916031e-01 0.000000000e+00 0.000000000e+00 0.000000000e+00 0.000000000e+00
5.200000e+08 -4.594214271e-03 -1.551780554e-02 9.906585890e-01 -1.022493559e-01 0.000000000e+00 0.000000000e+00 0.000000000e+00 0.000000000e+00
5.300000e+08 -4.665980662e-03 -1.581711391e-02 9.904438320e-01 -1.042053367e-01 0.000000000e+00 0.000000000e+00 0.000000000e+00 0.000000000e+00
5.400000e+08 -4.739294191e-03 -1.611602692e-02 9.902253632e-01 -1.061595851e-01 0.000000000e+00 0.000000000e+00 0.000000000e+00 0.000000000e+00
5.500000e+08 -4.814147039e-03 -1.641452980e-02 9.900031864e-01 -1.081121467e-01 0.000000000e+00 0.000000000e+00 0.000000000e+00 0.000000000e+00
5.600000e+08 -4.890527592e-03 -1.671260898e-02 9.897773049e-01 -1.100630726e-01 0.000000000e+00 0.000000000e+00 0.000000000e+00 0.000000000e+00
5.700000e+08 -4.968421222e-03 -1.701025362e-02 9.895477206e-01 -1.120124188e-01 0.000000000e+00 0.000000000e+00 0.000000000e+00 0.000000000e+00
5.800000e+08 -5.047811630e-03 -1.730745675e-02 9.893144326e-01 -1.139602449e-01 0.000000000e+00 0.000000000e+00 0.000000000e+00 0.000000000e+00
5.900000e+08 -5.128682499e-03 -1.760421564e-02 9.890774376e-01 -1.159066126e-01 0.000000000e+00 0.000000000e+00 0.000000000e+00 0.000000000e+00
6.000000e+08 -5.211019126e-03 -1.790053156e-02 9.888367287e-01 -1.178515847e-01 0.000000000e+00 0.000000000e+00 0.000000000e+00 0.000000000e+00
6.100000e+08 -5.294809783e-03 -1.819640883e-02 9.885922963e-01 -1.197952233e-01 0.000000000e+00 0.000000000e+00 0.000000000e+00 0.000000000e+00
6.200000e+08 -5.380046562e-03 -1.849185345e-02 9.883441283e-01 -1.217375892e-01 0.000000000e+00 0.000000000e+00 0.000000000e+00 0.000000000e+00
6.300000e+08 -5.466725618e-03 -1.878687160e-02 9.880922109e-01 -1.236787404e-01 0.000000000e+00 0.000000000e+00 0.000000000e+00 0.000000000e+00
6.400000e+08 -5.554846774e-03 -1.908146810e-02 9.878365292e-01 -1.256187321e-01 0.000000000e+00 0.000000000e+00 0.000000000e+00 0.000000000e+00
6.500000e+08 -5.644412612e-03 -1.937564526e-02 9.875770680e-01 -1.275576161e-01 0.000000000e+00 0.000000000e+00 0.000000000e+00 0.000000000e+00
6.600000e+08 -5.735427207e-03 -1.966940221e-02 9.873138130e-01 -1.294954405e-01 0.000000000e+00 0.000000000e+00 0.000000000e+00 0.000000000e+00
6.700000e+08 -5.827894749e-03 -1.996273474e-02 9.870467509e-01 -1.314322506e-01 0.000000000e+00 0.000000000e+00 0.000000000e+00 0.000000000e+00
6.800000e+08 -5.921818264e-03 -2.025563573e-02 9.867758701e-01 -1.333680887e-01 0.000000000e+00 0.000000000e+00 0.000000000e+00 0.000000000e+00
6.900000e+08 -6.017198651e-03 -2.054809598e-02 9.865011608e-01 -1.353029946e-01 0.000000000e+00 0.000000000e+00 0.000000000e+00 0.000000000e+00
7.000000e+08 -6.114034153e-03 -2.084010539e-02 9.862226152e-01 -1.372370064e-01 0.000000000e+00 0.000000000e+00 0.000000000e+00 0.000000000e+00
7.100000e+08 -6.212320344e-03 -2.113165410e-02 9.859402270e-01 -1.391701605e-01 0.000000000e+00 0.000000000e+00 0.000000000e+00 0.000000000e+00
7.200000e+08 -6.312050579e-03 -2.142273363e-02 9.856539913e-01 -1.411024923e-01 0.000000000e+00 0.000000000e+00 0.000000000e+00 0.000000000e+00
7.300000e+08 -6.413216812e-03 -2.171333757e-02 9.853639045e-01 -1.430340357e-01 0.000000000e+00 0.000000000e+00 0.000000000e+00 0.000000000e+00
7.400000e+08 -6.515810641e-03 -2.200346205e-02 9.850699633e-01 -1.449648240e-01 0.000000000e+00 0.000000000e+00 0.000000000e+00 0.000000000e+00
7.500000e+08 -6.619824367e-03 -2.229310554e-02 9.847721648e-01 -1.468948891e-01 0.000000000e+00 0.000000000e+00 0.000000000e+00 0.000000000e+00
7.600000e+08 -6.725251922e-03 -2.258226847e-02 9.844705060e-01 -1.488242616e-01 0.000000000e+00 0.000000000e+00 0.000000000e+00 0.000000000e+00
7.700000e+08 -6.832089500e-03 -2.287095233e-02 9.841649836e-01 -1.507529705e-01 0.000000000e+00 0.000000000e+00 0.000000000e+00 0.000000000e+00
7.800000e+08 -6.940335822e-03 -2.315915880e-02 9.838555942e-01 -1.526810430e-01 0.000000000e+00 0.000000000e+00 0.000000000e+00 0.000000000e+00
7.900000e+08 -7.049991997e-03 -2.344688870e-02 9.835423337e-01 -1.546085039e-01 0.000000000e+00 0.000000000e+00 0.000000000e+00 0.000000000e+00
8.000000e+08 -7.161061029e-03 -2.373414125e-02 9.832251978e-01 -1.565353759e-01 0.000000000e+00 0.000000000e+00 0.000000000e+00 0.000000000e+00
8.100000e+08 -7.273547065e-03 -2.402091345e-02 9.829041824e-01 -1.584616789e-01 0.000000000e+00 0.000000000e+00 0.000000000e+00 0.000000000e+00
8.200000e+08 -7.387454520e-03 -2.430719996e-02 9.825792832e-01 -1.603874302e-01 0.000000000e+00 0.000000000e+00 0.000000000e+00 0.000000000e+00
8.300000e+08 -7.502787218e-03 -2.459299318e-02 9.822504963e-01 -1.623126446e-01 0.000000000e+00 0.000000000e+00 0.000000000e+00 0.000000000e+00
8.400000e+08 -7.619547682e-03 -2.487828378e-02 9.819178183e-01 -1.642373342e-01 0.000000000e+00 0.000000000e+00 0.000000000e+00 0.000000000e+00
8.500000e+08 -7.737736683e-03 -2.516306130e-02 9.815812466e-01 -1.661615088e-01 0.000000000e+00 0.000000000e+00 0.000000000e+00 0.000000000e+00
8.600000e+08 -7.857353090e-03 -2.544731500e-02 9.812407793e-01 -1.680851763e-01 0.000000000e+00 0.000000000e+00 0.000000000e+00 0.000000000e+00
8.700000e+08 -7.978394038e-03 -2.573103452e-02 9.808964152e-01 -1.700083423e-01 0.000000000e+00 0.000000000e+00 0.000000000e+00 0.000000000e+00
8.800000e+08 -8.100855354e-03 -2.601421052e-02 9.805481540e-01 -1.719310111e-01 0.000000000e+00 0.000000000e+00 0.000000000e+00 0.000000000e+00
8.900000e+08 -8.224732168e-03 -2.629683505e-02 9.801959958e-01 -1.738531854e-01 0.000000000e+00 0.000000000e+00 0.000000000e+00 0.000000000e+00
9.000000e+08 -8.350019582e-03 -2.657890155e-02 9.798399413e-01 -1.757748666e-01 0.000000000e+00 0.000000000e+00 0.000000000e+00 0.000000000e+00
9.100000e+08 -8.476713304e-03 -2.686040475e-02 9.794799916e-01 -1.776960551e-01 0.000000000e+00 0.000000000e+00 0.000000000e+00 0.000000000e+00
9.200000e+08 -8.604810133e-03 -2.714134016e-02 9.791161477e-01 -1.796167500e-01 0.000000000e+00 0.000000000e+00 0.000000000e+00 0.000000000e+00
9.300000e+08 -8.734308220e-03 -2.742170358e-02 9.787484107e-01 -1.815369493e-01 0.000000000e+00 0.000000000e+00 0.000000000e+00 0.000000000e+00
9.400000e+08 -8.865207089e-03 -2.770149041e-02 9.783767813e-01 -1.834566500e-01 0.000000000e+00 0.000000000e+00 0.000000000e+00 0.000000000e+00
9.500000e+08 -8.997507406e-03 -2.798069512e-02 9.780012601e-01 -1.853758476e-01 0.000000000e+00 0.000000000e+00 0.000000000e+00 0.000000000e+00
9.600000e+08 -9.131210555e-03 -2.825931086e-02 9.776218472e-01 -1.872945362e-01 0.000000000e+00 0.000000000e+00 0.000000000e+00 0.000000000e+00
9.700000e+08 -9.266318084e-03 -2.853732915e-02 9.772385427e-01 -1.892127087e-01 0.000000000e+00 0.000000000e+00 0.000000000e+00 0.000000000e+00
9.800000e+08 -9.402831123e-03 -2.881473996e-02 9.768513462e-01 -1.911303561e-01 0.000000000e+00 0.000000000e+00 0.000000000e+00 0.000000000e+00
9.900000e+08 -9.540749849e-03 -2.909153188e-02 9.764602575e-01 -1.930474680e-01 0.000000000e+00 0.000000000e+00 0.000000000e+00 0.000000000e+00
1.000000e+09 -9.680073079e-03 -2.936769257e-02 9.760652764e-01 -1.949640322e-01 0.000000000e+00 0.000000000e+00 0.000000000e+00 0.000000000e+00
1.010000e+09 -9.820798045e-03 -2.964320917e-02 9.756664028e-01 -1.968800352e-01 0.000000000e+00 0.000000000e+00 0.000000000e+00 0.000000000e+00
1.020000e+09 -9.962920364e-03 -2.991806892e-02 9.752636374e-01 -1.987954619e-01 0.000000000e+00 0.000000000e+00 0.000000000e+00 0.000000000e+00
1.030000e+09 -1.010643419e-02 -3.019225960e-02 9.748569813e-01 -2.007102962e-01 0.000000000e+00 0.000000000e+00 0.000000000e+00 0.000000000e+00
1.040000e+09 -1.025133252e-02 -3.046576989e-02 9.744464363e-01 -2.026245207e-01 0.000000000e+00 0.000000000e+00 0.000000000e+00 0.000000000e+00
1.050000e+09 -1.039760760e-02 -3.073858965e-02 9.740320048e-01 -2.045381176e-01 0.000000000e+00 0.000000000e+00 0.000000000e+00 0.000000000e+00
1.060000e+09 -1.054525131e-02 -3.101070993e-02 9.736136901e-01 -2.064510683e-01 0.000000000e+00 0.000000000e+00 0.000000000e+00 0.000000000e+00
1.070000e+09 -1.069425558e-02 -3.128212293e-02 9.731914958e-01 -2.083633541e-01 0.000000000e+00 0.000000000e+00 0.000000000e+00 0.000000000e+00
1.080000e+09 -1.084461265e-02 -3.155282176e-02 9.727654263e-01 -2.102749561e-01 0.000000000e+00 0.000000000e+00 0.000000000e+00 0.000000000e+00
1.090000e+09 -1.099631526e-02 -3.182280021e-02 9.723354861e-01 -2.121858556e-01 0.000000000e+00 0.000000000e+00 0.000000000e+00 0.000000000e+00
1.100000e+09 -1.114935669e-02 -3.209205248e-02 9.719016797e-01 -2.140960340e-01 0.000000000e+00 0.000000000e+00 0.000000000e+00 0.000000000e+00
1.110000e+09 -1.130373070e-02 -3.236057292e-02 9.714640118e-01 -2.160054727e-01 0.000000000e+00 0.000000000e+00 0.000000000e+00 0.000000000e+00
1.120000e+09 -1.145943139e-02 -3.262835590e-02 9.710224865e-01 -2.179141537e-01 0.000000000e+00 0.000000000e+00 0.000000000e+00 0.000000000e+00
1.130000e+09 -1.161645305e-02 -3.289539577e-02 9.705771077e-01 -2.198220586e-01 0.000000000e+00 0.000000000e+00 0.000000000e+00 0.000000000e+00
1.140000e+09 -1.177478999e-02 -3.316168685e-02 9.701278788e-01 -2.217291691e-01 0.000000000e+00 0.000000000e+00 0.000000000e+00 0.000000000e+00
1.150000e+09 -1.193443650e-02 -3.342722357e-02 9.696748026e-01 -2.236354668e-01 0.000000000e+00 0.000000000e+00 0.000000000e+00 0.000000000e+00
1.160000e+09 -1.209538675e-02 -3.369200057e-02 9.692178815e-01 -2.255409328e-01 0.000000000e+00 0.000000000e+00 0.000000000e+00 0.000000000e+00
1.170000e+09 -1.225763497e-02 -3.395601288e-02 9.687571174e-01 -2.274455478e-01 0.000000000e+00 0.000000000e+00 0.000000000e+00 0.000000000e+00
1.180000e+09 -1.242117548e-02 -3.421925596e-02 9.682925119e-01 -2.293492918e-01 0.000000000e+00 0.000000000e+00 0.000000000e+00 0.000000000e+00
1.190000e+09 -1.258600296e-02 -3.448172571e-02 9.678240669e-01 -2.312521444e-01 0.000000000e+00 0.000000000e+00 0.000000000e+00 0.000000000e+00
1.200000e+09 -1.275211261e-02 -3.474341841e-02 9.673517839e-01 -2.331540844e-01 0.000000000e+00 0.000000000e+00 0.000000000e+00 0.000000000e+00
1.210000e+09 -1.291950029e-02 -3.500433051e-02 9.668756651e-01 -2.350550903e-01 0.000000000e+00 0.000000000e+00 0.000000000e+00 0.000000000e+00
1.220000e+09 -1.308816259e-02 -3.526445845e-02 9.663957131e-01 -2.369551402e-01 0.000000000e+00 0.000000000e+00 0.000000000e+00 0.000000000e+00
1.230000e+09 -1.325809684e-02 -3.552379830e-02 9.659119310e-01 -2.388542119e-01 0.000000000e+00 0.000000000e+00 0.000000000e+00 0.000000000e+00
1.240000e+09 -1.342930093e-02 -3.578234562e-02 9.654243225e-01 -2.407522833e-01 0.000000000e+00 0.000000000e+00 0.000000000e+00 0.000000000e+00
1.250000e+09 -1.360177313e-02 -3.604009515e-02 9.649328923e-01 -2.426493327e-01 0.000000000e+00 0.000000000e+00 0.000000000e+00 0.000000000e+00
1.260000e+09 -1.377551175e-02 -3.629704083e-02 9.644376455e-01 -2.445453388e-01 0.000000000e+00 0.000000000e+00 0.000000000e+00 0.000000000e+00
1.270000e+09 -1.395051481e-02 -3.655317571e-02 9.639385876e-01 -2.464402807e-01 0.000000000e+00 0.000000000e+00 0.000000000e+00 0.000000000e+00
1.280000e+09 -1.412677978e-02 -3.680849217e-02 9.634357247e-01 -2.483341387e-01 0.000000000e+00 0.000000000e+00 0.000000000e+00 0.000000000e+00
1.290000e+09 -1.430430330e-02 -3.706298215e-02 9.629290631e-01 -2.502268936e-01 0.000000000e+00 0.000000000e+00 0.000000000e+00 0.000000000e+00
1.300000e+09 -1.448308108e-02 -3.731663743e-02 9.624186089e-01 -2.521185274e-01 0.000000000e+00 0.000000000e+00 0.000000000e+00 0.000000000e+00
1.310000e+09 -1.466310788e-02 -3.756945007e-02 9.619043684e-01 -2.540090228e-01 0.000000000e+00 0.000000000e+00 0.000000000e+00 0.000000000e+00
1.320000e+09 -1.484437764e-02 -3.782141269e-02 9.613863475e-01 -2.558983632e-01 0.000000000e+00 0.000000000e+00 0.000000000e+00 0.000000000e+00
1.330000e+09 -1.502688375e-02 -3.807251875e-02 9.608645518e-01 -2.577865327e-01 0.000000000e+00 0.000000000e+00 0.000000000e+00 0.000000000e+00
1.340000e+09 -1.521061935e-02 -3.832276271e-02 9.603389865e-01 -2.596735161e-01 0.000000000e+00 0.000000000e+00 0.000000000e+00 0.000000000e+00
1.350000e+09 -1.539557774e-02 -3.857214005e-02 9.598096567e-01 -2.615592983e-01 0.000000000e+00 0.000000000e+00 0.000000000e+00 0.000000000e+00
1.360000e+09 -1.558175267e-02 -3.882064717e-02 9.592765671e-01 -2.634438649e-01 0.000000000e+00 0.000000000e+00 0.000000000e+00 0.000000000e+00
1.370000e+09 -1.576913869e-02 -3.906828115e-02 9.587397225e-01 -2.653272013e-01 0.000000000e+00 0.000000000e+00 0.000000000e+00 0.000000000e+00
1.380000e+09 -1.595773127e-02 -3.931503943e-02 9.581991276e-01 -2.672092935e-01 0.000000000e+00 0.000000000e+00 0.000000000e+00 0.000000000e+00
1.390000e+09 -1.614752692e-02 -3.956091947e-02 9.576547873e-01 -2.690901278e-01 0.000000000e+00 0.000000000e+00 0.000000000e+00 0.000000000e+00
1.400000e+09 -1.633852302e-02 -3.980591835e-02 9.571067069e-01 -2.709696908e-01 0.000000000e+00 0.000000000e+00 0.000000000e+00 0.000000000e+00
1.410000e+09 -1.653071767e-02 -4.005003255e-02 9.565548920e-01 -2.728479698e-01 0.000000000e+00 0.000000000e+00 0.000000000e+00 0.000000000e+00
1.420000e+09 -1.672410939e-02 -4.029325768e-02 9.559993485e-01 -2.747249528e-01 0.000000000e+00 0.000000000e+00 0.000000000e+00 0.000000000e+00
1.430000e+09 -1.691869673e-02 -4.053558851e-02 9.554400825e-01 -2.766006289e-01 0.000000000e+00 0.000000000e+00 0.000000000e+00 0.000000000e+00
1.440000e+09 -1.711447802e-02 -4.077701894e-02 9.548771005e-01 -2.784749881e-01 0.000000000e+00 0.000000000e+00 0.000000000e+00 0.000000000e+00
1.450000e+09 -1.731145101e-02 -4.101754226e-02 9.543104088e-01 -2.803480217e-01 0.000000000e+00 0.000000000e+00 0.000000000e+00 0.000000000e+00
1.460000e+09 -1.750961274e-02 -4.125715139e-02 9.537400135e-01 -2.822197221e-01 0.000000000e+00 0.000000000e+00 0.000000000e+00 0.000000000e+00
1.470000e+09 -1.770895944e-02 -4.149583916e-02 9.531659202e-01 -2.840900830e-01 0.000000000e+00 0.000000000e+00 0.000000000e+00 0.000000000e+00
1.480000e+09 -1.790948662e-02 -4.173359869e-02 9.525881338e-01 -2.859590993e-01 0.000000000e+00 0.000000000e+00 0.000000000e+00 0.000000000e+00
1.490000e+09 -1.811118921e-02 -4.197042359e-02 9.520066584e-01 -2.878267665e-01 0.000000000e+00 0.000000000e+00 0.000000000e+00 0.000000000e+00
1.500000e+09 -1.831406181e-02 -4.220630816e-02 9.514214971e-01 -2.896930809e-01 0.000000000e+00 0.000000000e+00 0.000000000e+00 0.000000000e+00
1.510000e+09 -1.851809901e-02 -4.244124741e-02 9.508326520e-01 -2.915580394e-01 0.000000000e+00 0.000000000e+00 0.000000000e+00 0.000000000e+00
1.520000e+09 -1.872329567e-02 -4.267523706e-02 9.502401241e-01 -2.934216386e-01 0.000000000e+00 0.000000000e+00 0.000000000e+00 0.000000000e+00
1.530000e+09 -1.892964713e-02 -4.290827331e-02 9.496439139e-01 -2.952838753e-01 0.000000000e+00 0.000000000e+00 0.000000000e+00 0.000000000e+00
1.540000e+09 -1.913714940e-02 -4.314035267e-02 9.490440208e-01 -2.971447459e-01 0.000000000e+00 0.000000000e+00 0.000000000e+00 0.000000000e+00
1.550000e+09 -1.934579920e-02 -4.337147158e-02 9.484404441e-01 -2.990042462e-01 0.000000000e+00 0.000000000e+00 0.000000000e+00 0.000000000e+00
1.560000e+09 -1.955559389e-02 -4.360162622e-02 9.478331830e-01 -3.008623715e-01 0.000000000e+00 0.000000000e+00 0.000000000e+00 0.000000000e+00
1.570000e+09 -1.976653131e-02 -4.383081224e-02 9.472222367e-01 -3.027191169e-01 0.000000000e+00 0.000000000e+00 0.000000000e+00 0.000000000e+00
1.580000e+09 -1.997860953e-02 -4.405902461e-02 9.466076049e-01 -3.045744768e-01 0.000000000e+00 0.000000000e+00 0.000000000e+00 0.000000000e+00
1.590000e+09 -2.019182661e-02 -4.428625755e-02 9.459892879e-01 -3.064284456e-01 0.000000000e+00 0.000000000e+00 0.000000000e+00 0.000000000e+00
1.600000e+09 -2.040618025e-02 -4.451250463e-02 9.453672865e-01 -3.082810179e-01 0.000000000e+00 0.000000000e+00 0.000000000e+00 0.000000000e+00
1.610000e+09 -2.062166765e-02 -4.473775890e-02 9.447416024e-01 -3.101321884e-01 0.000000000e+00 0.000000000e+00 0.000000000e+00 0.000000000e+00
1.620000e+09 -2.083828528e-02 -4.496201310e-02 9.441122378e-01 -3.119819524e-01 0.000000000e+00 0.000000000e+00 0.000000000e+00 0.000000000e+00
1.630000e+09 -2.105602884e-02 -4.518525997e-02 9.434791954e-01 -3.138303059e-01 0.000000000e+00 0.000000000e+00 0.000000000e+00 0.000000000e+00
1.640000e+09 -2.127489333e-02 -4.540749250e-02 9.428424783e-01 -3.156772459e-01 0.000000000e+00 0.000000000e+00 0.000000000e+00 0.000000000e+00
1.650000e+09 -2.149487314e-02 -4.562870412e-02 9.422020895e-01 -3.175227702e-01 0.000000000e+00 0.000000000e+00 0.000000000e+00 0.000000000e+00
1.660000e+09 -2.171596228e-02 -4.584888892e-02 9.415580321e-01 -3.193668774e-01 0.000000000e+00 0.000000000e+00 0.000000000e+00 0.000000000e+00
1.670000e+09 -2.193815461e-02 -4.606804171e-02 9.409103084e-01 -3.212095669e-01 0.000000000e+00 0.000000000e+00 0.000000000e+00 0.000000000e+00
1.680000e+09 -2.216144412e-02 -4.628615797e-02 9.402589208e-01 -3.230508388e-01 0.000000000e+00 0.000000000e+00 0.000000000e+00 0.000000000e+00
1.690000e+09 -2.238582510e-02 -4.650323378e-02 9.396038705e-01 -3.248906935e-01 0.000000000e+00 0.000000000e+00 0.000000000e+00 0.000000000e+00
1.700000e+09 -2.261129233e-02 -4.671926562e-02 9.389451587e-01 -3.267291314e-01 0.000000000e+00 0.000000000e+00 0.000000000e+00 0.000000000e+00
1.710000e+09 -2.283784116e-02 -4.693425017e-02 9.382827856e-01 -3.285661533e-01 0.000000000e+00 0.000000000e+00 0.000000000e+00 0.000000000e+00
1.720000e+09 -2.306546750e-02 -4.714818410e-02 9.376167512e-01 -3.304017593e-01 0.000000000e+00 0.000000000e+00 0.000000000e+00 0.000000000e+00
1.730000e+09 -2.329416775e-02 -4.736106387e-02 9.369470551e-01 -3.322359496e-01 0.000000000e+00 0.000000000e+00 0.000000000e+00 0.000000000e+00
1.740000e+09 -2.352393864e-02 -4.757288557e-02 9.362736968e-01 -3.340687238e-01 0.000000000e+00 0.000000000e+00 0.000000000e+00 0.000000000e+00
1.750000e+09 -2.375477708e-02 -4.778364488e-02 9.355966759e-01 -3.359000812e-01 0.000000000e+00 0.000000000e+00 0.000000000e+00 0.000000000e+00
1.760000e+09 -2.398667998e-02 -4.799333701e-02 9.349159922e-01 -3.377300207e-01 0.000000000e+00 0.000000000e+00 0.000000000e+00 0.000000000e+00
1.770000e+09 -2.421964409e-02 -4.820195681e-02 9.342316456e-01 -3.395585412e-01 0.000000000e+00 0.000000000e+00 0.000000000e+00 0.000000000e+00
1.780000e+09 -2.445366584e-02 -4.840949883e-02 9.335436367e-01 -3.413856413e-01 0.000000000e+00 0.000000000e+00 0.000000000e+00 0.000000000e+00
1.790000e+09 -2.468874135e-02 -4.861595750e-02 9.328519662e-01 -3.432113196e-01 0.000000000e+00 0.000000000e+00 0.000000000e+00 0.000000000e+00
1.800000e+09 -2.492486637e-02 -4.882132723e-02 9.321566349e-01 -3.450355750e-01 0.000000000e+00 0.000000000e+00 0.000000000e+00 0.000000000e+00
1.810000e+09 -2.516203632e-02 -4.902560255e-02 9.314576440e-01 -3.468584064e-01 0.000000000e+00 0.000000000e+00 0.000000000e+00 0.000000000e+00
1.820000e+09 -2.540024644e-02 -4.922877820e-02 9.307549949e-01 -3.486798129e-01 0.000000000e+00 0.000000000e+00 0.000000000e+00 0.000000000e+00
1.830000e+09 -2.563949179e-02 -4.943084917e-02 9.300486887e-01 -3.504997937e-01 0.000000000e+00 0.000000000e+00 0.000000000e+00 0.000000000e+00
1.840000e+09 -2.587976746e-02 -4.963181067e-02 9.293387266e-01 -3.523183484e-01 0.000000000e+00 0.000000000e+00 0.000000000e+00 0.000000000e+00
1.850000e+09 -2.612106856e-02 -4.983165814e-02 9.286251094e-01 -3.541354761e-01 0.000000000e+00 0.000000000e+00 0.000000000e+00 0.000000000e+00
1.860000e+09 -2.636339036e-02 -5.003038713e-02 9.279078378e-01 -3.559511760e-01 0.000000000e+00 0.000000000e+00 0.000000000e+00 0.000000000e+00
1.870000e+09 -2.660672822e-02 -5.022799324e-02 9.271869125e-01 -3.577654472e-01 0.000000000e+00 0.000000000e+00 0.000000000e+00 0.000000000e+00
1.880000e+09 -2.685107764e-02 -5.042447205e-02 9.264623338e-01 -3.595782882e-01 0.000000000e+00 0.000000000e+00 0.000000000e+00 0.000000000e+00
1.890000e+09 -2.709643416e-02 -5.061981910e-02 9.257341020e-01 -3.613896971e-01 0.000000000e+00 0.000000000e+00 0.000000000e+00 0.000000000e+00
1.900000e+09 -2.734279335e-02 -5.081402980e-02 9.250022177e-01 -3.631996715e-01 0.000000000e+00 0.000000000e+00 0.000000000e+00 0.000000000e+00
1.910000e+09 -2.759015072e-02 -5.100709954e-02 9.242666813e-01 -3.650082087e-01 0.000000000e+00 0.000000000e+00 0.000000000e+00 0.000000000e+00
1.920000e+09 -2.783850169e-02 -5.119902363e-02 9.235274936e-01 -3.668153053e-01 0.000000000e+00 0.000000000e+00 0.000000000e+00 0.000000000e+00
1.930000e+09 -2.808784158e-02 -5.138979743e-02 9.227846557e-01 -3.686209575e-01 0.000000000e+00 0.000000000e+00 0.000000000e+00 0.000000000e+00
1.940000e+09 -2.833816564e-02 -5.157941636e-02 9.220381691e-01 -3.704251613e-01 0.000000000e+00 0.000000000e+00 0.000000000e+00 0.000000000e+00
1.950000e+09 -2.858946907e-02 -5.176787595e-02 9.212880355e-01 -3.722279123e-01 0.000000000e+00 0.000000000e+00 0.000000000e+00 0.000000000e+00
1.960000e+09 -2.884174708e-02 -5.195517186e-02 9.205342568e-01 -3.740292058e-01 0.000000000e+00 0.000000000e+00 0.000000000e+00 0.000000000e+00
1.970000e+09 -2.909499502e-02 -5.214129984e-02 9.197768354e-01 -3.758290371e-01 0.000000000e+00 0.000000000e+00 0.000000000e+00 0.000000000e+00
1.980000e+09 -2.934920836e-02 -5.232625568e-02 9.190157738e-01 -3.776274009e-01 0.000000000e+00 0.000000000e+00 0.000000000e+00 0.000000000e+00
1.990000e+09 -2.960438275e-02 -5.251003513e-02 9.182510744e-01 -3.794242921e-01 0.000000000e+00 0.000000000e+00 0.000000000e+00 0.000000000e+00
2.000000e+09 -2.986051402e-02 -5.269263379e-02 9.174827400e-01 -3.812197049e-01 0.000000000e+00 0.000000000e+00 0.000000000e+00 0.000000000e+00
2.010000e+09 -3.011759811e-02 -5.287404703e-02 9.167107734e-01 -3.830136334e-01 0.000000000e+00 0.000000000e+00 0.000000000e+00 0.000000000e+00
2.020000e+09 -3.037563097e-02 -5.305426991e-02 9.159351776e-01 -3.848060712e-01 0.000000000e+00 0.000000000e+00 0.000000000e+00 0.000000000e+00
2.030000e+09 -3.063460846e-02 -5.323329716e-02 9.151559556e-01 -3.865970113e-01 0.000000000e+00 0.000000000e+00 0.000000000e+00 0.000000000e+00
2.040000e+09 -3.089452620e-02 -5.341112317e-02 9.143731106e-01 -3.883864465e-01 0.000000000e+00 0.000000000e+00 0.000000000e+00 0.000000000e+00
2.050000e+09 -3.115537944e-02 -5.358774209e-02 9.135866462e-01 -3.901743688e-01 0.000000000e+00 0.000000000e+00 0.000000000e+00 0.000000000e+00
2.060000e+09 -3.141716295e-02 -5.376314796e-02 9.127965662e-01 -3.919607699e-01 0.000000000e+00 0.000000000e+00 0.000000000e+00 0.000000000e+00
2.070000e+09 -3.167987099e-02 -5.393733484e-02 9.120028748e-01 -3.937456412e-01 0.000000000e+00 0.000000000e+00 0.000000000e+00 0.000000000e+00
2.080000e+09 -3.194349733e-02 -5.411029698e-02 9.112055765e-01 -3.955289734e-01 0.000000000e+00 0.000000000e+00 0.000000000e+00 0.000000000e+00
2.090000e+09 -3.220803528e-02 -5.428202902e-02 9.104046763e-01 -3.973107571e-01 0.000000000e+00 0.000000000e+00 0.000000000e+00 0.000000000e+00
2.100000e+09 -3.247347788e-02 -5.445252610e-02 9.096001793e-01 -3.990909828e-01 0.000000000e+00 0.000000000e+00 0.000000000e+00 0.000000000e+00
2.110000e+09 -3.273981804e-02 -5.462178392e-02 9.087920910e-01 -4.008696406e-01 0.000000000e+00 0.000000000e+00 0.000000000e+00 0.000000000e+00
2.120000e+09 -3.300704873e-02 -5.478979880e-02 9.079804169e-01 -4.026467205e-01 0.000000000e+00 0.000000000e+00 0.000000000e+00 0.000000000e+00
2.130000e+09 -3.327516322e-02 -5.495656757e-02 9.071651627e-01 -4.044222123e-01 0.000000000e+00 0.000000000e+00 0.000000000e+00 0.000000000e+00
2.140000e+09 -3.354415517e-02 -5.512208747e-02 9.063463339e-01 -4.061961056e-01 0.000000000e+00 0.000000000e+00 0.000000000e+00 0.000000000e+00
2.150000e+09 -3.381401882e-02 -5.528635600e-02 9.055239361e-01 -4.079683895e-01 0.000000000e+00 0.000000000e+00 0.000000000e+00 0.000000000e+00
2.160000e+09 -3.408474897e-02 -5.544937066e-02 9.046979746e-01 -4.097390528e-01 0.000000000e+00 0.000000000e+00 0.000000000e+00 0.000000000e+00
2.170000e+09 -3.435634098e-02 -5.561112880e-02 9.038684548e-01 -4.115080838e-01 0.000000000e+00 0.000000000e+00 0.000000000e+00 0.000000000e+00
2.180000e+09 -3.462879066e-02 -5.577162743e-02 9.030353818e-01 -4.132754701e-01 0.000000000e+00 0.000000000e+00 0.000000000e+00 0.000000000e+00
2.190000e+09 -3.490209413e-02 -5.593086307e-02 9.021987610e-01 -4.150411986e-01 0.000000000e+00 0.000000000e+00 0.000000000e+00 0.000000000e+00
2.200000e+09 -3.517624762e-02 -5.608883173e-02 9.013585976e-01 -4.168052557e-01 0.000000000e+00 0.000000000e+00 0.000000000e+00 0.000000000e+00
2.210000e+09 -3.545124730e-02 -5.624552886e-02 9.005148973e-01 -4.185676267e-01 0.000000000e+00 0.000000000e+00 0.000000000e+00 0.000000000e+00
2.220000e+09 -3.572708912e-02 -5.640094946e-02 8.996676660e-01 -4.203282965e-01 0.000000000e+00 0.000000000e+00 0.000000000e+00 0.000000000e+00
2.230000e+09 -3.600376865e-02 -5.655508817e-02 8.988169099e-01 -4.220872493e-01 0.000000000e+00 0.000000000e+00 0.000000000e+00 0.000000000e+00
2.240000e+09 -3.628128106e-02 -5.670793946e-02 8.979626358e-01 -4.238444689e-01 0.000000000e+00 0.000000000e+00 0.000000000e+00 0.000000000e+00
2.250000e+09 -3.655962106e-02 -5.685949774e-02 8.971048509e-01 -4.255999386e-01 0.000000000e+00 0.000000000e+00 0.000000000e+00 0.000000000e+00
2.260000e+09 -3.683878301e-02 -5.700975752e-02 8.962435628e-01 -4.273536413e-01 0.000000000e+00 0.000000000e+00 0.000000000e+00 0.000000000e+00
2.270000e+09 -3.711876096e-02 -5.715871350e-02 8.953787797e-01 -4.291055601e-01 0.000000000e+00 0.000000000e+00 0.000000000e+00 0.000000000e+00
2.280000e+09 -3.739954880e-02 -5.730636063e-02 8.945105098e-01 -4.308556776e-01 0.000000000e+00 0.000000000e+00 0.000000000e+00 0.000000000e+00
2.290000e+09 -3.768114036e-02 -5.745269410e-02 8.936387619e-01 -4.326039765e-01 0.000000000e+00 0.000000000e+00 0.000000000e+00 0.000000000e+00
2.300000e+09 -3.796352953e-02 -5.759770931e-02 8.927635448e-01 -4.343504397e-01 0.000000000e+00 0.000000000e+00 0.000000000e+00 0.000000000e+00
2.310000e+09 -3.824671029e-02 -5.774140175e-02 8.918848675e-01 -4.360950499e-01 0.000000000e+00 0.000000000e+00 0.000000000e+00 0.000000000e+00
2.320000e+09 -3.853067677e-02 -5.788376693e-02 8.910027388e-01 -4.378377899e-01 0.000000000e+00 0.000000000e+00 0.000000000e+00 0.000000000e+00
2.330000e+09 -3.881542319e-02 -5.802480028e-02 8.901171679e-01 -4.395786423e-01 0.000000000e+00 0.000000000e+00 0.000000000e+00 0.000000000e+00
2.340000e+09 -3.910094380e-02 -5.816449712e-02 8.892281635e-01 -4.413175899e-01 0.000000000e+00 0.000000000e+00 0.000000000e+00 0.000000000e+00
2.350000e+09 -3.938723280e-02 -5.830285256e-02 8.883357346e-01 -4.430546155e-01 0.000000000e+00 0.000000000e+00 0.000000000e+00 0.000000000e+00
2.360000e+09 -3.967428426e-02 -5.843986160e-02 8.874398901e-01 -4.447897017e-01 0.000000000e+00 0.000000000e+00 0.000000000e+00 0.000000000e+00
2.370000e+09 -3.996209202e-02 -5.857551912e-02 8.865406388e-01 -4.465228313e-01 0.000000000e+00 0.000000000e+00 0.000000000e+00 0.000000000e+00
2.380000e+09 -4.025064968e-02 -5.870982003e-02 8.856379894e-01 -4.482539871e-01 0.000000000e+00 0.000000000e+00 0.000000000e+00 0.000000000e+00
2.390000e+09 -4.053995056e-02 -5.884275929e-02 8.847319507e-01 -4.499831519e-01 0.000000000e+00 0.000000000e+00 0.000000000e+00 0.000000000e+00
2.400000e+09 -4.082998779e-02 -5.897433207e-02 8.838225314e-01 -4.517103088e-01 0.000000000e+00 0.000000000e+00 0.000000000e+00 0.000000000e+00
2.410000e+09 -4.112075433e-02 -5.910453378e-02 8.829097401e-01 -4.534354412e-01 0.000000000e+00 0.000000000e+00 0.000000000e+00 0.000000000e+00
2.420000e+09 -4.141224311e-02 -5.923336012e-02 8.819935852e-01 -4.551585325e-01 0.000000000e+00 0.000000000e+00 0.000000000e+00 0.000000000e+00
2.430000e+09 -4.170444713e-02 -5.936080703e-02 8.810740751e-01 -4.568795666e-01 0.000000000e+00 0.000000000e+00 0.000000000e+00 0.000000000e+00
2.440000e+09 -4.199735949e-02 -5.948687066e-02 8.801512180e-01 -4.585985278e-01 0.000000000e+00 0.000000000e+00 0.000000000e+00 0.000000000e+00
2.450000e+09 -4.229097349e-02 -5.961154730e-02 8.792250219e-01 -4.603154007e-01 0.000000000e+00 0.000000000e+00 0.000000000e+00 0.000000000e+00
2.460000e+09 -4.258528259e-02 -5.973483327e-02 8.782954945e-01 -4.620301704e-01 0.000000000e+00 0.000000000e+00 0.000000000e+00 0.000000000e+00
2.470000e+09 -4.288028040e-02 -5.985672483e-02 8.773626435e-01 -4.637428226e-01 0.000000000e+00 0.000000000e+00 0.000000000e+00 0.000000000e+00
2.480000e+09 -4.317596057e-02 -5.997721816e-02 8.764264763e-01 -4.654533434e-01 0.000000000e+00 0.000000000e+00 0.000000000e+00 0.000000000e+00
2.490000e+09 -4.347231671e-02 -6.009630936e-02 8.754870000e-01 -4.671617200e-01 0.000000000e+00 0.000000000e+00 0.000000000e+00 0.000000000e+00
2.500000e+09 -4.376934230e-02 -6.021399450e-02 8.745442216e-01 -4.688679401e-01 0.000000000e+00 0.000000000e+00 0.000000000e+00 0.000000000e+00
2.510000e+09 -4.406703061e-02 -6.033026973e-02 8.735981475e-01 -4.705719926e-01 0.000000000e+00 0.000000000e+00 0.000000000e+00 0.000000000e+00
2.520000e+09 -4.436537474e-02 -6.044513141e-02 8.726487840e-01 -4.722738673e-01 0.000000000e+00 0.000000000e+00 0.000000000e+00 0.000000000e+00
2.530000e+09 -4.466436764e-02 -6.055857626e-02 8.716961367e-01 -4.739735554e-01 0.000000000e+00 0.000000000e+00 0.000000000e+00 0.000000000e+00
2.540000e+09 -4.496400227e-02 -6.067060148e-02 8.707402106e-01 -4.756710493e-01 0.000000000e+00 0.000000000e+00 0.000000000e+00 0.000000000e+00
2.550000e+09 -4.526427175e-02 -6.078120480e-02 8.697810096e-01 -4.773663425e-01 0.000000000e+00 0.000000000e+00 0.000000000e+00 0.000000000e+00
2.560000e+09 -4.556516963e-02 -6.089038450e-02 8.688185369e-01 -4.790594302e-01 0.000000000e+00 0.000000000e+00 0.000000000e+00 0.000000000e+00
2.570000e+09 -4.586669006e-02 -6.099813925e-02 8.678527945e-01 -4.807503085e-01 0.000000000e+00 0.000000000e+00 0.000000000e+00 0.000000000e+00
2.580000e+09 -4.616882800e-02 -6.110446796e-02 8.668837832e-01 -4.824389750e-01 0.000000000e+00 0.000000000e+00 0.000000000e+00 0.000000000e+00
2.590000e+09 -4.647157931e-02 -6.120936951e-02 8.659115026e-01 -4.841254279e-01 0.000000000e+00 0.000000000e+00 0.000000000e+00 0.000000000e+00
2.600000e+09 -4.677494071e-02 -6.131284241e-02 8.649359510e-01 -4.858096669e-01 0.000000000e+00 0.000000000e+00 0.000000000e+00 0.000000000e+00
2.610000e+09 -4.707890969e-02 -6.141488455e-02 8.639571259e-01 -4.874916923e-01 0.000000000e+00 0.000000000e+00 0.000000000e+00 0.000000000e+00
2.620000e+09 -4.738348424e-02 -6.151549289e-02 8.629750235e-01 -4.891715054e-01 0.000000000e+00 0.000000000e+00 0.000000000e+00 0.000000000e+00
2.630000e+09 -4.768866250e-02 -6.161466338e-02 8.619896396e-01 -4.908491086e-01 0.000000000e+00 0.000000000e+00 0.000000000e+00 0.000000000e+00
2.640000e+09 -4.799444240e-02 -6.171239095e-02 8.610009690e-01 -4.925245053e-01 0.000000000e+00 0.000000000e+00 0.000000000e+00 0.000000000e+00
2.650000e+09 -4.830082125e-02 -6.180866959e-02 8.600090063e-01 -4.941977005e-01 0.000000000e+00 0.000000000e+00 0.000000000e+00 0.000000000e+00
2.660000e+09 -4.860779542e-02 -6.190349270e-02 8.590137454e-01 -4.958687006e-01 0.000000000e+00 0.000000000e+00 0.000000000e+00 0.000000000e+00
2.670000e+09 -4.891536014e-02 -6.199685351e-02 8.580151797e-01 -4.975375142e-01 0.000000000e+00 0.000000000e+00 0.000000000e+00 0.000000000e+00
2.680000e+09 -4.922350945e-02 -6.208874551e-02 8.570133018e-01 -4.992041523e-01 0.000000000e+00 0.000000000e+00 0.000000000e+00 0.000000000e+00
2.690000e+09 -4.953223635e-02 -6.217916294e-02 8.560081033e-01 -5.008686280e-01 0.000000000e+00 0.000000000e+00 0.000000000e+00 0.000000000e+00
2.700000e+09 -4.984153312e-02 -6.226810124e-02 8.549995745e-01 -5.025309575e-01 0.000000000e+00 0.000000000e+00 0.000000000e+00 0.000000000e+00
2.710000e+09 -5.015139179e-02 -6.235555729e-02 8.539877037e-01 -5.041911593e-01 0.000000000e+00 0.000000000e+00 0.000000000e+00 0.000000000e+00
2.720000e+09 -5.046180463e-02 -6.244152951e-02 8.529724773e-01 -5.058492545e-01 0.000000000e+00 0.000000000e+00 0.000000000e+00 0.000000000e+00
2.730000e+09 -5.077276483e-02 -6.252601776e-02 8.519538788e-01 -5.075052664e-01 0.000000000e+00 0.000000000e+00 0.000000000e+00 0.000000000e+00
2.740000e+09 -5.108426686e-02 -6.260902300e-02 8.509318893e-01 -5.091592201e-01 0.000000000e+00 0.000000000e+00 0.000000000e+00 0.000000000e+00
2.750000e+09 -5.139630691e-02 -6.269054679e-02 8.499064870e-01 -5.108111418e-01 0.000000000e+00 0.000000000e+00 0.000000000e+00 0.000000000e+00
2.760000e+09 -5.170888303e-02 -6.277059069e-02 8.488776475e-01 -5.124610585e-01 0.000000000e+00 0.000000000e+00 0.000000000e+00 0.000000000e+00
2.770000e+09 -5.202199496e-02 -6.284915562e-02 8.478453439e-01 -5.141089973e-01 0.000000000e+00 0.000000000e+00 0.000000000e+00 0.000000000e+00
2.780000e+09 -5.233564388e-02 -6.292624132e-02 8.468095477e-01 -5.157549852e-01 0.000000000e+00 0.000000000e+00 0.000000000e+00 0.000000000e+00
2.790000e+09 -5.264983184e-02 -6.300184590e-02 8.457702292e-01 -5.173990490e-01 0.000000000e+00 0.000000000e+00 0.000000000e+00 0.000000000e+00
2.800000e+09 -5.296456110e-02 -6.307596569e-02 8.447273579e-01 -5.190412148e-01 0.000000000e+00 0.000000000e+00 0.000000000e+00 0.000000000e+00
2.810000e+09 -5.327983340e-02 -6.314859529e-02 8.436809036e-01 -5.206815087e-01 0.000000000e+00 0.000000000e+00 0.000000000e+00 0.000000000e+00
2.820000e+09 -5.359564936e-02 -6.321972792e-02 8.426308366e-01 -5.223199567e-01 0.000000000e+00 0.000000000e+00 0.000000000e+00 0.000000000e+00
2.830000e+09 -5.391200796e-02 -6.328935601e-02 8.415771283e-01 -5.239565858e-01 0.000000000e+00 0.000000000e+00 0.000000000e+00 0.000000000e+00
2.840000e+09 -5.422890627e-02 -6.335747191e-02 8.405197513e-01 -5.255914239e-01 0.000000000e+00 0.000000000e+00 0.000000000e+00 0.000000000e+00
2.850000e+09 -5.454633956e-02 -6.342406869e-02 8.394586792e-01 -5.272245008e-01 0.000000000e+00 0.000000000e+00 0.000000000e+00 0.000000000e+00
2.860000e+09 -5.486430157e-02 -6.348914092e-02 8.383938865e-01 -5.288558486e-01 0.000000000e+00 0.000000000e+00 0.000000000e+00 0.000000000e+00
2.870000e+09 -5.518278510e-02 -6.355268518e-02 8.373253483e-01 -5.304855018e-01 0.000000000e+00 0.000000000e+00 0.000000000e+00 0.000000000e+00
2.880000e+09 -5.550178288e-02 -6.361470047e-02 8.362530395e-01 -5.321134979e-01 0.000000000e+00 0.000000000e+00 0.000000000e+00 0.000000000e+00
2.890000e+09 -5.582128832e-02 -6.367518822e-02 8.351769345e-01 -5.337398764e-01 0.000000000e+00 0.000000000e+00 0.000000000e+00 0.000000000e+00
2.900000e+09 -5.614129648e-02 -6.373415200e-02 8.340970065e-01 -5.353646792e-01 0.000000000e+00 0.000000000e+00 0.000000000e+00 0.000000000e+00
2.910000e+09 -5.646180465e-02 -6.379159694e-02 8.330132275e-01 -5.369879496e-01 0.000000000e+00 0.000000000e+00 0.000000000e+00 0.000000000e+00
2.920000e+09 -5.678281293e-02 -6.384752895e-02 8.319255675e-01 -5.386097316e-01 0.000000000e+00 0.000000000e+00 0.000000000e+00 0.000000000e+00
2.930000e+09 -5.710432428e-02 -6.390195378e-02 8.308339955e-01 -5.402300692e-01 0.000000000e+00 0.000000000e+00 0.000000000e+00 0.000000000e+00
2.940000e+09 -5.742634444e-02 -6.395487609e-02 8.297384787e-01 -5.418490054e-01 0.000000000e+00 0.000000000e+00 0.000000000e+00 0.000000000e+00
2.950000e+09 -5.774888136e-02 -6.400629864e-02 8.286389840e-01 -5.434665819e-01 0.000000000e+00 0.000000000e+00 0.000000000e+00 0.000000000e+00
2.960000e+09 -5.807194454e-02 -6.405622166e-02 8.275354777e-01 -5.450828379e-01 0.000000000e+00 0.000000000e+00 0.000000000e+00 0.000000000e+00
2.970000e+09 -5.839554407e-02 -6.410464258e-02 8.264279265e-01 -5.466978103e-01 0.000000000e+00 0.000000000e+00 0.000000000e+00 0.000000000e+00
2.980000e+09 -5.871968979e-02 -6.415155592e-02 8.253162981e-01 -5.483115328e-01 0.000000000e+00 0.000000000e+00 0.000000000e+00 0.000000000e+00
2.990000e+09 -5.904439032e-02 -6.419695366e-02 8.242005617e-01 -5.499240360e-01 0.000000000e+00 0.000000000e+00 0.000000000e+00 0.000000000e+00
3.000000e+09 -5.936965242e-02 -6.424082573e-02 8.230806880e-01 -5.515353470e-01 0.000000000e+00 0.000000000e+00 0.000000000e+00 0.000000000e+00
