! rfsim (KiCad + openEMS)
!
! Created with skrf 2.1.0 (http://scikit-rf.org).
# Hz S RI R 50.0 
!freq ReS11 ImS11 ReS21 ImS21 ReS12 ImS12 ReS22 ImS22
500000000.0 -0.9749522506055412 0.1936999097745676 0.0012640306295878592 0.004782487878032268 0.0013799798590684632 0.006132645258604986 -0.9916376978174632 0.09349604102772938
510000000.0 -0.9740679540566102 0.19858560736063444 0.0012602437291959446 0.004931426313662205 0.0014243339385795716 0.006205989094949818 -0.9915282355221258 0.09522379771991966
520000000.0 -0.9731632073248243 0.20348644437597796 0.0012587771933697917 0.0050805912713486135 0.0014670680927833832 0.006281918258745455 -0.9914206660237136 0.09696036517115385
530000000.0 -0.9722367290938715 0.20840122905801 0.001259584268766788 0.0052299468810326575 0.0015084033136823327 0.006360388497454325 -0.99131427636868 0.09870568389728314
540000000.0 -0.9712873268337534 0.21332876736292727 0.0012626198616245369 0.005379459365791389 0.0015485486560452076 0.006441349880183811 -0.991208388212518 0.10045966114385275
550000000.0 -0.9703138978919768 0.21826786885176858 0.0012678404714096298 0.0055290968410008365 0.001587701594005498 0.006524747556101305 -0.991102357614753 0.10222217424012014
560000000.0 -0.9693154286938428 0.22321735025399506 0.0012752041050753116 0.005678829130779439 0.0016260484013855155 0.006610522443777361 -0.9909955752350194 0.10399307416327122
570000000.0 -0.9682909943369016 0.22817604066399627 0.00128467019705535 0.005828627620133489 0.0016637645339882428 0.0066986118769250605 -0.9908874658300725 0.10577218824296943
580000000.0 -0.9672397560636812 0.23314278533659777 0.0012961995183881306 0.005978465123346363 0.0017010150187933171 0.006788950191515167 -0.990777487551513 0.10755932285628088
590000000.0 -0.9661609595942852 0.23811644945704802 0.0013097540924720099 0.006128315769833529 0.0017379548520295614 0.006881469268458371 -0.990665131744223 0.10935426662297495
600000000.0 -0.9650539314971207 0.24309592197087315 0.0013252971064597386 0.006278154912877414 0.0017747293996312583 0.006976099026927602 -0.99054992194529 0.11115679230129114
610000000.0 -0.9639180762678974 0.24808011816748865 0.0013427928298630075 0.0064279590516632176 0.0018114748049742134 0.007072767879496545 -0.9904314133833975 0.1129666591841281
620000000.0 -0.9627528723948349 0.2530679825176366 0.0013622065328088894 0.006577705764678018 0.0018483183869709109 0.007171403148170031 -0.9903091917786201 0.11478361519564494
630000000.0 -0.9615578682634046 0.25805849127493236 0.0013835044153796786 0.006727373662285249 0.0018853790505705213 0.007271931435584348 -0.9901828730424163 0.11660739898830831
640000000.0 -0.9603326783693465 0.2630506538535878 0.0014066535359096867 0.00687694234451747 0.001922767686383483 0.007374278963338154 -0.9900521013778402 0.1184377416403665
650000000.0 -0.959076978589327 0.26804351470267185 0.0014316217528908355 0.0070263923655582 0.0019605875672136295 0.007478371876158613 -0.9899165494798887 0.12027436795364525
660000000.0 -0.9577905024573251 0.273036154000288 0.0014583776656788817 0.007175705211486062 0.0019989347462633397 0.007584136507698833 -0.9897759164359269 0.12211699845177339
670000000.0 -0.956473036389989 0.27802768879427886 0.0014868905673600262 0.0073248632816187 0.0020378984380187734 0.007691499621520366 -0.9896299275261374 0.12396535067866495
680000000.0 -0.9551244156000751 0.2830172732192962 0.0015171304031862025 0.007473849875020163 0.002077561397476688 0.007800388613145739 -0.9894783327239275 0.12581914009731512
690000000.0 -0.9537445201237577 0.2880040988217117 0.0015490677326665241 0.007622649176809396 0.0021180002871909096 0.007910731691861862 -0.9893209057963264 0.12767808168888078
700000000.0 -0.9523332706900552 0.2929873938252041 0.0015826737013589726 0.00777124625481876 0.0021592860336068624 0.008022458030407003 -0.989157443404306 0.12954189075189929
710000000.0 -0.9508906246552701 0.29796642346889773 0.0016179200162585086 0.007919627049310216 0.002201484169434847 0.00813549789216134 -0.9889877637029676 0.1314102840017686
720000000.0 -0.9494165731130518 0.30294048875458734 0.0016547789269382143 0.008067778374494326 0.0022446551636930516 0.008249782732750453 -0.988811705941685 0.1332829803703286
730000000.0 -0.9479111364922386 0.30790892593020225 0.0016932232126295498 0.008215687905716241 0.002288854738317756 0.008365245283511997 -0.9886291286640806 0.1351597017055494
740000000.0 -0.9463743622527256 0.3128711051448145 0.0017332261748623354 0.0083633441838858 0.0023341341674112974 0.008481819615221913 -0.988439909507906 0.13704017377133415
750000000.0 -0.9448063210748568 0.31782642970635244 0.0017747616288010203 0.008510736601429295 0.002380540562775306 0.00859944118391199 -0.9882439435048225 0.13892412634734105
760000000.0 -0.9432071047489134 0.32277433466564426 0.0018178039078029094 0.008657855403452198 0.0024281171412382937 0.008718046859034191 -0.9880411427800305 0.14081129452885488
770000000.0 -0.9415768232552849 0.32771428535664515 0.0018623278618502298 0.008804691673065097 0.0024769034773488336 0.008837574941780038 -0.9878314350518311 0.14270141842662507
780000000.0 -0.9399156026327523 0.3326457759156203 0.0019083088603315352 0.008951237330029643 0.002526935743675914 0.008957965171086197 -0.9876147630310745 0.14459424436673526
790000000.0 -0.938223582725859 0.33756832840365963 0.0019557228068530267 0.009097485111829371 0.002578246923105572 0.00907915871577041 -0.9873910837205134 0.14648952459038206
800000000.0 -0.9365009155977004 0.34248149064857425 0.0020045461385301113 0.009243428563133028 0.0026308670209858522 0.009201098165236357 -0.9871603669141282 0.1483870180536313
810000000.0 -0.9347477636002399 0.3473848352259509 0.0020547558438621816 0.009389062024608449 0.0026848232469932807 0.00932372750565752 -0.9869225950963894 0.15028649052710136
820000000.0 -0.9329642978916791 0.3522779580941262 0.002106329471107803 0.009534380608923287 0.002740140192791675 0.009446992096258124 -0.9866777621413169 0.15218771479556176
830000000.0 -0.9311506974767042 0.3571604766936334 0.0021592451372129963 0.00967938018786273 0.002796839991265707 0.009570838641347128 -0.9864258726118285 0.1540904709574689
840000000.0 -0.9293071476716436 0.3620320293270455 0.002213481545337304 0.00982405736827291 0.0028549424582179368 0.009695215157276867 -0.9861669411588083 0.15599454662437817
850000000.0 -0.9274338394624715 0.3668922731227777 0.0022690179941389113 0.009968409469959439 0.002914465230131371 0.009820070939523338 -0.985900991620418 0.15789973682031275
860000000.0 -0.9255309682588734 0.3717408833884814 0.002325834388046963 0.010112434501507526 0.002975423877136373 0.009945356529421653 -0.9856280567209091 0.15980584428099626
870000000.0 -0.9235987338167887 0.3765775522670277 0.002383911251457676 0.0102561311368651 0.0030378320196141353 0.010071023681342986 -0.9853481765703772 0.16171267925302962
880000000.0 -0.9216373391195483 0.38140198748845267 0.002443229737314192 0.010399498676737041 0.0031017014209293895 0.010197025328009446 -0.9850613989635468 0.16362006009294833
890000000.0 -0.919646990211286 0.38621391142415457 0.00250377163781211 0.010542537044641838 0.003167042078366009 0.010323315561174922 -0.9847677780795244 0.16552781236625416
900000000.0 -0.917627895457298 0.3910130605456963 0.0025655193902936143 0.010685246735380865 0.003233862302064271 0.01044984959416787 -0.9844673743808133 0.1674357698463095
910000000.0 -0.9155802657301568 0.3957991839814437 0.002628456087164916 0.010827628773520375 0.0033021687924455 0.010576583732962549 -0.9841602536129801 0.16934377371319984
920000000.0 -0.9135043138021057 0.400572043174187 0.002692565481600323 0.010969684721302218 0.003371966699614086 0.01070347536390534 -0.9838464864043495 0.17125167275255448
930000000.0 -0.9114002542407194 0.4053314112333643 0.0027578319890988823 0.011111416624787129 0.0034432596886692494 0.010830482960081576 -0.9835261480653144 0.1731593233542661
940000000.0 -0.9092683030925004 0.41007707197840076 0.002824240693761749 0.011252826969983786 0.003516049993636905 0.010957566005887865 -0.9831993177885727 0.1750665893112474
950000000.0 -0.9071086782448282 0.41480881987097157 0.0028917773472422158 0.011393918667436201 0.003590338467783058 0.011084685039526847 -0.9828660780485604 0.17697334181805957
960000000.0 -0.9049215984612087 0.4195264591265058 0.002960428367952846 0.011534695027476541 0.0036661246353587467 0.011211801663122085 -0.9825265146018002 0.17887945936966598
970000000.0 -0.9027072843850354 0.4242298038008915 0.0030301808420206047 0.01167515969384935 0.0037434067355466647 0.011338878459454901 -0.9821807156866595 0.18078482726003925
980000000.0 -0.9004659575979773 0.4289186771494091 0.003101022518338293 0.011815316658743689 0.003822181763183443 0.011465879085248647 -0.9818287717239619 0.18268933818085784
990000000.0 -0.8981978408335677 0.43359291134442246 0.0031729418037899303 0.011955170186351833 0.0039024455188988783 0.011592768210664944 -0.9814707753169875 0.1845928912202109
1000000000.0 -0.8959031578364115 0.4382523476514108 0.003245927755928351 0.01209472481832775 0.00398419264980185 0.011719511573101355 -0.9811068201520046 0.18649539236132937
1010000000.0 -0.8935821334736206 0.4428968359499525 0.0033199700764379256 0.012233985328116299 0.004067416687536268 0.011846075936709975 -0.9807370013990767 0.18839675418135526
1020000000.0 -0.8912349934791572 0.4475262345001741 0.003395059101874172 0.01237295667623956 0.004152110098622358 0.011972429165079068 -0.9803614150121882 0.1902968953501402
1030000000.0 -0.8888619639427383 0.45214041044057623 0.0034711857931190035 0.012511644016984343 0.004238264325689603 0.012098540197649523 -0.9799801574306314 0.19219574092915867
1040000000.0 -0.8864632719344491 0.4567392389127122 0.0035483417232686316 0.012650052654921008 0.0043258698352657745 0.012224379058193603 -0.9795933255793526 0.19409322167046625
1050000000.0 -0.8840391446759865 0.46132260410741777 0.003626519067675674 0.012788188002130326 0.004414916161365548 0.01234991689632717 -0.979201016170093 0.19598927461572266
1060000000.0 -0.8815898096155514 0.4658903980204754 0.003705710584978406 0.012926055587254433 0.004505391961681151 0.012475126009186687 -0.9788033261026117 0.19788384219531388
1070000000.0 -0.8791154940140152 0.47044252162099487 0.0037859096062783995 0.01306366099463966 0.004597285062948934 0.01259997982402609 -0.978400351465323 0.19977687212757783
1080000000.0 -0.8766164248772892 0.4749788842151608 0.0038671100209649065 0.013201009875033946 0.004690582519152545 0.01272445296200121 -0.9779921880367869 0.20166831771814223
1090000000.0 -0.8740928287901404 0.47949940329932134 0.003949306259048391 0.013338107926723925 0.00478527066488687 0.012848521219503434 -0.977578930686732 0.20355813745932239
1100000000.0 -0.8715449309753412 0.4840040054129825 0.004032493273317321 0.013474960828925587 0.004881335174774356 0.012972161579796146 -0.9771606730776164 0.20544629432967268
1110000000.0 -0.8689729557164749 0.4884926251677404 0.004116666525164623 0.013611574275191237 0.004978761123143773 0.013095352271977246 -0.9767375081652403 0.20733275649361693
1120000000.0 -0.8663771254846394 0.4929652060513281 0.0042018219651700035 0.013747953968556595 0.005077533043983097 0.01321807273909846 -0.9763095272008695 0.20921749650128257
1130000000.0 -0.8637576608842665 0.49742169971488726 0.00428795601768525 0.013884105527517523 0.005177635001254827 0.013340303641441191 -0.9758768202317337 0.21110049148825
1140000000.0 -0.8611147799691797 0.5018620665146535 0.004375065562954281 0.014020034553548652 0.0052790506426591685 0.013462026919087298 -0.9754394756031362 0.2129817224756762
1150000000.0 -0.8584486978289075 0.5062862752413863 0.004463147917361278 0.014155746599583819 0.00538176327947705 0.013583225728688952 -0.9749975800589227 0.21486117477030728
1160000000.0 -0.8557596265152552 0.5106943026892792 0.004552200820829442 0.014291247139239679 0.005485755945192734 0.013703884488694052 -0.9745512185432034 0.21673883776477648
1170000000.0 -0.8530477743437119 0.5150861341007247 0.0046422224160925065 0.014426541567818777 0.005591011464637809 0.013823988858192008 -0.9741004741017483 0.21861470413784787
1180000000.0 -0.8503133452262812 0.5194617626686004 0.004733211232413152 0.014561635193610202 0.0056975125266832145 0.013943525723189925 -0.9736454276828318 0.22048877035490166
1190000000.0 -0.8475565386450897 0.5238211895862595 0.004825166170509796 0.014696533260714776 0.005805241749880878 0.01406248320704351 -0.9731861583381998 0.22236103646844807
1200000000.0 -0.8447775491946317 0.5281644235647426 0.004918086490494151 0.014831240892420853 0.0059141817493079925 0.0141808506375594 -0.9727227430248151 0.22423150531874805
1210000000.0 -0.8419765655453832 0.5324914806956904 0.00501197178738171 0.014965763115505558 0.006024315206451765 0.014298618527379537 -0.9722552565053693 0.2261001833345113
1220000000.0 -0.8391537707985762 0.5368023841761155 0.005106821986527688 0.01510010487554058 0.0061356249343278305 0.014415778551861493 -0.97178377104933 0.22796707943368652
1230000000.0 -0.836309341499543 0.5410971642863155 0.00520263732424662 0.01523427100263357 0.0062480939452117246 0.014532323539980647 -0.9713083570338616 0.22983220552434727
1240000000.0 -0.83344344759384 0.5453758574250422 0.005299418337664418 0.015368266227348694 0.006361705505953082 0.014648247432545485 -0.9708290822444762 0.23169557630555568
1250000000.0 -0.8305562517938724 0.5496385063988257 0.005397165851797035 0.01550209516852465 0.006476443206837914 0.014763545213718893 -0.9703460122760468 0.23355720876838112
1260000000.0 -0.8276479092881945 0.553885159473439 0.005495880969533872 0.015635762359961038 0.006592291015145071 0.014878212949703474 -0.9698592101329783 0.23541712219691974
1270000000.0 -0.8247185675481591 0.5581158703897895 0.005595565057649479 0.015769272218200025 0.006709233332900795 0.014992247662601137 -0.9693687366299897 0.23727533836933556
1280000000.0 -0.8217683656291047 0.5623306977321637 0.005696219744802082 0.015902629060931633 0.0068272550473064296 0.015105647339238847 -0.9688746500923976 0.2391318809589476
1290000000.0 -0.8187974344358965 0.5665297041748866 0.0057978469034287725 0.01603583711476118 0.006946341581700312 0.015218410867566333 -0.9683770063565303 0.2409867757353178
1300000000.0 -0.8158058960752711 0.5707129563905602 0.0059004486518232455 0.01616890050421658 0.0070664789344065835 0.015330537979628198 -0.9678758586700642 0.24284005016548302
1310000000.0 -0.812793863730046 0.5748805244205537 0.006004027342367678 0.01630182327866915 0.007187653731206549 0.015442029208705852 -0.9673712582917176 0.24469173361487875
1320000000.0 -0.8097614415209442 0.5790324811492658 0.006108585555860505 0.0164346093721483 0.00730985324960965 0.015552885837447525 -0.9668632534918304 0.24654185694859537
1330000000.0 -0.8067087243230249 0.5831689016165263 0.006214126097335584 0.01656726265012722 0.00743306546293371 0.0156631098194275 -0.9663518904517175 0.24839045263240617
1340000000.0 -0.803635797833185 0.5872898624415648 0.006320651994523573 0.016699786878474652 0.0075572790646691625 0.015772703751419398 -0.965837212663883 0.2502375543338599
1350000000.0 -0.8005427380134051 0.591395441715573 0.0064281664915358345 0.016832185760376154 0.007682483487693467 0.01588167078282304 -0.9653192614318578 0.2520831972233458
1360000000.0 -0.7974296118161541 0.5954857178886127 0.006536673048720249 0.01696446290405619 0.007808668936101781 0.015990014592325404 -0.9647980755696838 0.2539274174750261
1370000000.0 -0.7942964765668765 0.5995607695479295 0.006646175337598887 0.017096621849408362 0.007935826388888812 0.016097739295697702 -0.9642736912014546 0.25577025256786806
1380000000.0 -0.7911433803071314 0.6036206744921089 0.006756677244295308 0.01722866604448258 0.008063947617981536 0.016204849391497488 -0.9637461424610899 0.2576117406865164
1390000000.0 -0.787970361661988 0.6076655098798844 0.006868182868786139 0.017360598901091876 0.008193025193887815 0.016311349725339052 -0.9632154607915488 0.25945192112215115
1400000000.0 -0.7847774503194389 0.6116953509288511 0.00698069651914162 0.017492423720818925 0.008323052484967598 0.016417245386597314 -0.9626816756445135 0.26129083387327656
1410000000.0 -0.7815646668628197 0.6157102707704041 0.0070942227202989904 0.017624143759608177 0.008454023663301618 0.016522541723021884 -0.9621448136793871 0.2631285195464826
1420000000.0 -0.7783320230512859 0.6197103401330105 0.007208766211044102 0.017755762191929012 0.008585933690662002 0.016627244187445135 -0.9616048995631782 0.2649650196570902
1430000000.0 -0.7750795223027703 0.6236956262410421 0.007324331943398614 0.017887282104092225 0.008718778306285592 0.016731358364770934 -0.961061955569215 0.26680037602974843
1440000000.0 -0.7718071594706474 0.6276661929185527 0.0074409250917293205 0.018018706557647063 0.008852554042349008 0.016834889870383132 -0.9605160018765658 0.26863463099894846
1450000000.0 -0.7685149216948023 0.6316220999036675 0.007558551043548484 0.01815003849189465 0.008987258162825083 0.016937844349242833 -0.9599670561692681 0.2704678273095457
1460000000.0 -0.7652027880249355 0.6355634024835373 0.007677215416672484 0.01828128080453826 0.00912288866708278 0.017040227368768392 -0.9594151340358384 0.27230000791705444
1470000000.0 -0.7618707306686338 0.6394901509712471 0.007796924044067919 0.018412436304026492 0.009259444286635445 0.017142044400946146 -0.9588602491677949 0.2741312161880063
1480000000.0 -0.7585187142771493 0.6434023905507374 0.00791768299216805 0.018543507718489977 0.009396924414557308 0.017243300789143514 -0.9583024126596746 0.27596149560018635
1490000000.0 -0.7551466974837435 0.6473001608201271 0.008039498554718581 0.01867449768710771 0.009535329122751332 0.01734400170551309 -0.957741633907265 0.2777908896428042
1500000000.0 -0.7517546322529319 0.6511834954818597 0.00816237725489665 0.018805408787989093 0.00967465909475969 0.01744415209221216 -0.9571779199079103 0.2796194418166008
1510000000.0 -0.748342465054174 0.6550524219156582 0.008286325853613476 0.018936243466760067 0.009814915618310329 0.017543756643904597 -0.9566112758584975 0.2814471957338302
1520000000.0 -0.7449101368372706 0.6589069613573743 0.008411351338555894 0.019067004115750637 0.009956100551352058 0.0176428197948128 -0.9560417047557791 0.2832741948183263
1530000000.0 -0.7414575837584513 0.6627471283928906 0.008537460946581137 0.019197693000372554 0.0100982162652025 0.01774134565732132 -0.9554692079951602 0.2851004824053601
1540000000.0 -0.7379847373821242 0.6665729305014985 0.008664662146645003 0.019328312286257567 0.01024126564065189 0.017839338023239733 -0.9548937845699201 0.28692610154146714
1550000000.0 -0.7344915252342462 0.6703843686161166 0.008792962642669155 0.019458864025700868 0.010385252002947385 0.017936800340152693 -0.9543154317705242 0.28875109488430356
1560000000.0 -0.7309778712868095 0.6741814366113568 0.008922370394717919 0.01958935014462681 0.010530179091194978 0.018033735696781947 -0.9537341451839481 0.2905755051023691
1570000000.0 -0.7274436963237085 0.6779641209175374 0.009052893593860467 0.01971977244660465 0.010676051056692932 0.018130146786905676 -0.9531499182935795 0.2923993741746962
1580000000.0 -0.7238889186070188 0.681732401272736 0.009184540657128645 0.019850132611107345 0.01082287236723753 0.018226035950569514 -0.9525627430781638 0.29422274369066326
1590000000.0 -0.7203134539196087 0.6854862497746019 0.009317320283461016 0.01998043214498391 0.010970647810610221 0.018321405101487474 -0.9519726095111912 0.29604565494941393
1600000000.0 -0.7167172160650347 0.689225631705464 0.00945124136306828 0.020110672461041378 0.011119382461010801 0.018416255786443767 -0.9513795058608898 0.29786814855964533
1610000000.0 -0.7131001177158074 0.6929505052114701 0.009586313054171456 0.0202408547500554 0.011269081613057454 0.018510589146921382 -0.9507834189895459 0.29969026453913095
1620000000.0 -0.7094620702853851 0.6966608210619019 0.00972254475762214 0.020370980096585042 0.011419750787709577 0.018604405942972312 -0.9501843337532502 0.30151204221426753
1630000000.0 -0.7058029845538921 0.7003565235221563 0.00985994609042858 0.02050104937351815 0.011571395687597876 0.018697706531107944 -0.9495822336013517 0.3033335205196915
1640000000.0 -0.7021227710034044 0.7040375497146268 0.009998526898581935 0.02063106329654143 0.011724022147720631 0.018790490922373983 -0.9489771004765766 0.3051547372977993
1650000000.0 -0.6984213400261596 0.7077038303275589 0.010138297278171823 0.020761022368399454 0.011877636123825953 0.01888275872357164 -0.9483689146145429 0.3069757298982879
1660000000.0 -0.6946986026192344 0.7113552892117888 0.01027926752384533 0.020890926934042313 0.012032243681601263 0.01897450921916979 -0.9477576548438528 0.30879653477777347
1670000000.0 -0.6909544700560496 0.7149918441308974 0.010421448171655339 0.02102077710479935 0.012187850943543542 0.0190657413480413 -0.9471432984859927 0.31061718749930906
1680000000.0 -0.6871888548388116 0.7186134065807476 0.010564849969985668 0.021150572793804907 0.012344464106783281 0.019156453715561662 -0.9465258215545705 0.31243772283189897
1690000000.0 -0.6834016704153627 0.7222198820149178 0.010709483851450484 0.021280313691702125 0.012502089366587015 0.019246644629825713 -0.9459051985564985 0.31425817455025645
1700000000.0 -0.6795928316925899 0.7258111703493624 0.010855360980661585 0.02140999926876327 0.01266073296114677 0.019336312117258996 -0.9452814026911905 0.3160785753343083
1710000000.0 -0.6757622552579141 0.7293871657497245 0.011002492720596745 0.021539628773832396 0.012820401119378828 0.019425453939499546 -0.9446544057507236 0.3178989572687782
1720000000.0 -0.6719098592838776 0.7329477571486515 0.011150890615391455 0.021669201191856273 0.012981100069668015 0.019514067599422195 -0.9440241786203882 0.31971935084308006
1730000000.0 -0.6680355639999098 0.7364928285379512 0.011300566384402156 0.021798715303805657 0.013142836040632998 0.019602150387114024 -0.9433906903783355 0.3215397859508679
1740000000.0 -0.6641392915465271 0.7400222587586655 0.011451531955934544 0.02192816959921245 0.013305615214801728 0.019689699387102317 -0.9427539094959783 0.3233602910897773
1750000000.0 -0.6602209661162187 0.743535922264136 0.01160379940103363 0.02205756234162647 0.013469443778394735 0.019776711503111725 -0.9421138028382264 0.32518089366133657
1760000000.0 -0.6562805143509922 0.7470336890550854 0.01175738095988156 0.022186891544638085 0.013634327882379981 0.019863183450979868 -0.9414703363635424 0.3270016198706295
1770000000.0 -0.6523178649385825 0.7505154248355578 0.01191228905177597 0.022316154929787595 0.013800273669111246 0.019949111823634878 -0.9408234748241957 0.32882249482630094
1780000000.0 -0.64833294878294 0.7539809912962416 0.01206853620034123 0.022445349967065265 0.013967287276877044 0.02003449309834037 -0.9401731821666182 0.3306435421404565
1790000000.0 -0.644325699125565 0.7574302464005868 0.012226135120363787 0.022574473869965573 0.014135374837299108 0.02011932361475512 -0.9395194211316531 0.3324647844285421
1800000000.0 -0.6402960516518086 0.7608630443774722 0.012385098608858192 0.02270352356822217 0.014304542474265268 0.02020359963341655 -0.9388621535545265 0.3342862427094145
1810000000.0 -0.6362439439310489 0.7642792359681186 0.012545439633450452 0.02283249570538229 0.014474796355108527 0.020287317340072917 -0.938201340265537 0.3361079368054222
1820000000.0 -0.6321693159675805 0.7676786684578077 0.012707171243679897 0.02296138665621807 0.014646142671026508 0.020370472820550205 -0.9375369412893735 0.3379298851423577
1830000000.0 -0.6280721098831323 0.771061186156097 0.012870306619723625 0.023090192535295862 0.014818587675780068 0.020453062142339804 -0.936868915946835 0.33975210464988415
1840000000.0 -0.6239522695994566 0.7744266299871446 0.013034859031595186 0.023218909146486142 0.014992137683412456 0.020535081292453485 -0.936197222353164 0.3415746107613482
1850000000.0 -0.6198097413370234 0.777774837848964 0.013200841847124278 0.023347532030888307 0.015166799096934866 0.02061652621529479 -0.9355218184200514 0.34339741771418475
1860000000.0 -0.6156444729588146 0.7811056445755703 0.013368268526863224 0.023476056436207003 0.015342578423077702 0.02069739282325427 -0.9348426607539246 0.34522053795018154
1870000000.0 -0.6114564144255519 0.7844188822229097 0.013537152597471973 0.023604477335740063 0.015519482314045244 0.02077767697060159 -0.9341597057575362 0.34704398231547207
1880000000.0 -0.6072455169434133 0.7877143796623866 0.013707507652157794 0.023732789429764374 0.015697517549357734 0.02085737445690604 -0.9334729089294229 0.3488677604617532
1890000000.0 -0.6030117338313903 0.790991962710344 0.013879347383480607 0.02386098711939021 0.015876691101467333 0.020936481037573174 -0.9327822252637599 0.3506918799451997
1900000000.0 -0.5987550196030342 0.7942514543111957 0.014052685519773287 0.02398906452801568 0.016057010123489736 0.0210149924100062 -0.9320876092505264 0.3525163470281216
1910000000.0 -0.5944753305637973 0.7974926741403465 0.014227535832842253 0.024117015500611814 0.016238481974173533 0.02109290419077463 -0.9313890146755018 0.354341166278356
1920000000.0 -0.5901726239563464 0.8007154387969779 0.01440391216563709 0.02424483358919802 0.016421114279231368 0.021170211882581436 -0.9306863951196894 0.35616634037047434
1930000000.0 -0.5858468588227073 0.8039195615122708 0.014581828383363929 0.02437251209786688 0.016604914880151107 0.021246910918238743 -0.9299797036597501 0.35799187048534403
1940000000.0 -0.5814979953282369 0.8071048521082455 0.014761298403468712 0.024500044019059787 0.01678989189707776 0.02132299657181654 -0.9292688928674211 0.3598177559111152
1950000000.0 -0.5771259949578936 0.8102711165942243 0.014942336161836744 0.02462742208030147 0.016976053767899898 0.02139846398442828 -0.928553915209322 0.3616439942436395
1960000000.0 -0.5727308203699868 0.8134181574394982 0.015124955638959275 0.024754638715458004 0.017163409186519603 0.021473308098554897 -0.9278347228463532 0.3634705811860362
1970000000.0 -0.5683124358158137 0.8165457730895125 0.015309170818281634 0.024881686102030436 0.017351967210608922 0.021547523685477216 -0.9271112676338997 0.3652975105502124
1980000000.0 -0.5638708065465277 0.819653757888798 0.015494995714289405 0.025008556129367955 0.01754173718672693 0.021621105251603122 -0.9263835012205478 0.36712477465591564
1990000000.0 -0.559405899696183 0.8227419014977544 0.015682444346883883 0.025135240401625052 0.01773272880062376 0.02169404703766143 -0.9256513753487606 0.3689523634322046
2000000000.0 -0.5549176835132466 0.8258099894603002 0.015871530768164194 0.025261730267272457 0.01792495209158358 0.021766342981472658 -0.9249148414527245 0.3707802652168933
2010000000.0 -0.5504061283874048 0.8288578021589489 0.01606226901230768 0.025388016769203086 0.018118417438418258 0.021837986695029964 -0.9241738512593878 0.3726084663572844
2020000000.0 -0.545871206109469 0.8318851150841758 0.01625467311825563 0.02551409069328274 0.018313135530312427 0.021908971409908343 -0.9234283561869032 0.3744369511097159
2030000000.0 -0.5413128907786005 0.8348916983353526 0.016448757136933462 0.0256399425313744 0.018509117429382847 0.021979289936417772 -0.9226783081442842 0.3762657019403438
2040000000.0 -0.5367311587909167 0.8378773165943542 0.01664453512439867 0.02576556249553906 0.018706374504959385 0.02204893461843955 -0.9219236589301731 0.3780946992248998
2050000000.0 -0.532125989023239 0.8408417287973193 0.016842021118636866 0.02589094053179758 0.01890491842436639 0.022117897336950687 -0.9211643607331279 0.37992392114886153
2060000000.0 -0.527497363307027 0.8437846879033789 0.017041229119481128 0.02601606626877395 0.019104761180904747 0.022186169406947894 -0.9204003659302606 0.3817533440070343
2070000000.0 -0.5228452663836347 0.8467059407266998 0.01724217317261154 0.026140929068629828 0.01930591504132909 0.02225374158966889 -0.9196316272863253 0.3835829421038849
2080000000.0 -0.5181696869860175 0.8496052278231513 0.017444867240418774 0.026265518006421983 0.019508392507769236 0.022320604028692667 -0.9188580982528541 0.3854126874532927
2090000000.0 -0.5134706174756706 0.852482283399524 0.017649325314635388 0.026389821863913542 0.019712206335830245 0.022386746207969908 -0.9180797322683322 0.3872425500779549
2100000000.0 -0.5087480548314731 0.8553368346896816 0.017855561323599885 0.02651382909655406 0.019917369450539273 0.022452156932542197 -0.9172964839561919 0.3890724978092077
2110000000.0 -0.5040020007167458 0.8581686025606985 0.01806358918295693 0.02663752788621886 0.02012389498166873 0.02251682426775337 -0.9165083079251833 0.39090249628696894
2120000000.0 -0.4992324623733807 0.8609773010253925 0.018273422756368705 0.026760906112755143 0.02033179613005384 0.02258073552077489 -0.9157151601674935 0.39273250915904734
2130000000.0 -0.4944394526519243 0.8637626370255544 0.0184850758580319 0.02688395133023238 0.020541086218499056 0.02264387723086455 -0.9149169970588317 0.3945624976803567
2140000000.0 -0.4896229912339481 0.86652431099075 0.0186985622728816 0.0270066507766291 0.020751778587003836 0.02270623509216925 -0.9141137758572573 0.3963924212129115
2150000000.0 -0.48478310446454365 0.8692620163065623 0.018913895711164176 0.027128991381569986 0.02096388654190809 0.022767793955934763 -0.9133054550032472 0.39822223662480116
2160000000.0 -0.4799198264177763 0.8719754398949302 0.01913108981149877 0.027250959740336842 0.021177423365479633 0.02282853780085073 -0.9124919938179922 0.40005189868893165
2170000000.0 -0.47503319939446526 0.8746642617942177 0.01935015813543894 0.027372542124952288 0.021392402173915644 0.022888449730825863 -0.9116733529035168 0.40188136008323955
2180000000.0 -0.47012327465571574 0.8773281559236619 0.01957111415562234 0.027493724476243844 0.021608835918433617 0.022947511918787605 -0.9108494939422046 0.40371057118950127
2190000000.0 -0.46519011259247967 0.879966789812589 0.01979397127216423 0.027614492391379676 0.02182673731643418 0.023005705658874664 -0.9100203800958399 0.40553948009192786
2200000000.0 -0.4602337840498288 0.8825798252769947 0.02001874274803864 0.027734831109821015 0.02204611875859283 0.023063011281139013 -0.9091859758060044 0.40736803277662426
2210000000.0 -0.4552543703926284 0.8851669184691567 0.020245441722140146 0.027854725548065975 0.022266992285714313 0.023119408210115155 -0.9083462470926856 0.409196173130641
2220000000.0 -0.4502519642366235 0.8877277205370363 0.020474081217582745 0.02797416024974996 0.022489369496613957 0.02317487495713138 -0.9075011616552644 0.4110238425410649
2230000000.0 -0.44522667057289356 0.8902618777949531 0.020704674100011426 0.02809311941938925 0.022713261454279418 0.02322938910231513 -0.9066506887713984 0.4128509806933515
2240000000.0 -0.44017860664796105 0.8927690324860857 0.02093723305233811 0.028211586897249806 0.02293867871062542 0.023282927337917043 -0.9057947997974306 0.4146775245712242
2250000000.0 -0.43510790286460604 0.8952488234086768 0.02117177061057527 0.028329546164747102 0.023165631126436836 0.023335465450819468 -0.9049334679679234 0.41650340955420617
2260000000.0 -0.43001470363792627 0.897700886163075 0.021408299077846773 0.028446980338362845 0.023394127861394082 0.02338697839590244 -0.9040666682969705 0.4183285685184016
2270000000.0 -0.42489916740246375 0.9001248542604665 0.021646830564480163 0.02856387217719824 0.023624177323671856 0.02343744028663969 -0.9031943784767775 0.4201529323332328
2280000000.0 -0.4197614675582798 0.9025203597377116 0.021887376921738873 0.028680204081398823 0.02385578706725867 0.023486824451842928 -0.9023165780791205 0.42197643006250984
2290000000.0 -0.41460179251944157 0.9048870339243382 0.02212994978712653 0.028795958086736528 0.02408896374496891 0.023535103446924877 -0.901433249255148 0.4237989885617955
2300000000.0 -0.40942034669935456 0.9072245084259535 0.022374560462848157 0.02891111589017619 0.02432371303124518 0.023582249148659265 -0.900544376936315 0.42562053277798967
2310000000.0 -0.4042173500036936 0.9095324157809066 0.022621220014512982 0.029025658835913813 0.02456003958973477 0.02362823275095645 -0.8996499483345831 0.42744098574842837
2320000000.0 -0.39899303922790935 0.9118103908179573 0.022869939155942876 0.029139567903689323 0.024797946985536428 0.023673024881147742 -0.8987499538433512 0.42926026860037336
2330000000.0 -0.3937476673421125 0.9140580714235605 0.02312072827633964 0.029252823770804667 0.025037437679329814 0.02371659560836797 -0.8978443866375964 0.4310783009487846
2340000000.0 -0.3884815042119182 0.9162750997560103 0.0233735973954658 0.029365406781151966 0.025278512915604373 0.02375891454047579 -0.8969332430754752 0.4328950003976171
2350000000.0 -0.3831948366219977 0.9184611230559642 0.02362855614228472 0.02947729695921029 0.025521172723680548 0.023799950891937222 -0.8960165225992789 0.4347102830367891
2360000000.0 -0.37788796799290075 0.9206157950945684 0.023885613772363083 0.029588474031672966 0.02576541588952877 0.023839673551082866 -0.8950942283345749 0.43652406354347517
2370000000.0 -0.37256121886786847 0.9227387773253537 0.024144779088000393 0.029698917458742948 0.026011239871578228 0.023878051176134712 -0.8941663664937878 0.43833625508078417
2380000000.0 -0.3672149264146142 0.9248297398874162 0.024406060450123526 0.029808606411958836 0.026258640815680124 0.02391505224820018 -0.8932329474753353 0.44014676939694863
2390000000.0 -0.3618494443517414 0.9268883628412365 0.024669465740485876 0.02991751985387983 0.026507613526093956 0.02395064519324391 -0.892293985265236 0.4419555172264672
2400000000.0 -0.3564651423660486 0.9289143374540456 0.024935002381297006 0.030025636503133207 0.02675815143839519 0.023984798444598405 -0.8913494976387638 0.4437624079882444
2410000000.0 -0.3510624062703979 0.9309073675725903 0.025202677270763148 0.03013293487641433 0.02701024662798562 0.024017480531824557 -0.8903995069600077 0.44556735038590295
2420000000.0 -0.34564163705166123 0.9328671705274468 0.025472496767622962 0.030239393345005694 0.02726388978227685 0.024048660192867735 -0.8894440395849582 0.44737025220898846
2430000000.0 -0.34020325047873695 0.9347934785947963 0.025744466714899432 0.030344990118347223 0.027519070247927893 0.02407830644804396 -0.8884831264603924 0.4491710206317938
2440000000.0 -0.334747676225781 0.9366860399694065 0.026018592375521846 0.03044970331259416 0.027775775993506006 0.024106388707888386 -0.8875168029263436 0.4509695624136036
2450000000.0 -0.32927535769607724 0.9385446203130977 0.026294878458967944 0.03055351095023951 0.028033993698907116 0.024132876825990284 -0.8865451094171453 0.45276578400020295
2460000000.0 -0.3237867501782667 0.9403690036123489 0.026573329086118876 0.030656391033687388 0.02829370869552219 0.024157741239477656 -0.8855680911611552 0.45455959162373355
2470000000.0 -0.3182823210359202 0.9421589931199262 0.026853947783237478 0.03075832154725212 0.028554905073867532 0.02418095304539247 -0.884585798382224 0.45635089200252466
2480000000.0 -0.3127625475810184 0.9439144126798598 0.02713673748833658 0.030859280514850457 0.028817565697192876 0.024202484036526542 -0.8835982866008646 0.45813959184262393
2490000000.0 -0.3072279167174614 0.9456351080287438 0.02742170053476514 0.030959246053939415 0.029081672253950065 0.024222306848142583 -0.8826056167343285 0.4599255986384317
2500000000.0 -0.3016789233880736 0.9473209470795029 0.027708838667970935 0.03105819636721439 0.029347205304995745 0.024240395004038896 -0.8816078554969906 0.46170882087360987
2510000000.0 -0.2961160692717078 0.9489718210937798 0.027998153012374568 0.031156109863844178 0.02961414434752311 0.024256722980979663 -0.8806050748010458 0.46348916782103133
2520000000.0 -0.2905398617455714 0.9505876458096552 0.028289644119216636 0.03125296510894632 0.029882467903089436 0.024271266317970077 -0.8795973527570443 0.4652665505449664
2530000000.0 -0.2849508119213361 0.9521683617295491 0.028583311936008896 0.03134874098581309 0.03015215354939839 0.02428400163617498 -0.8785847734735263 0.46704088150086226
2540000000.0 -0.2793494334390818 0.9537139349546817 0.028879155855664574 0.03144341662185557 0.03042317804147006 0.02429490669580037 -0.8775674269570087 0.46881207553711907
2550000000.0 -0.27373624093029647 0.9552243577769555 0.02917717470661536 0.03153697151453635 0.030695517352189755 0.024303960477986473 -0.876545409612274 0.4705800496950541
2560000000.0 -0.2681117483334864 0.9566996492225179 0.029477366794966722 0.031629385581075246 0.030969146798223567 0.024311143216237355 -0.8755188241418591 0.4723447238112344
2570000000.0 -0.26247646731772106 0.9581398550436347 0.029779729899555334 0.03172063915014165 0.031244041090431125 0.024316436391329025 -0.8744877796451539 0.47410602101639004
2580000000.0 -0.25683090528753294 0.959545048695004 0.030084261319295022 0.03181071306020758 0.03152017441050994 0.024319822838325112 -0.8734523920190892 0.4758638677375001
2590000000.0 -0.25117556402204505 0.9609153308182844 0.03039095790662376 0.03189958869119801 0.0317975205627613 0.02432128668847101 -0.8724127836561237 0.47761819449788895
2600000000.0 -0.2455109378359117 0.9622508298229376 0.03069981611633111 0.0319872479919477 0.032076052981667894 0.024320813426438555 -0.8713690836434975 0.4793689363173432
2610000000.0 -0.23983751149739643 0.9635517014982962 0.03101083198265264 0.03207367356624234 0.032355744902238776 0.02431838985854614 -0.8703214279636831 0.48111603311356477
2620000000.0 -0.23415575879741476 0.9648181292081218 0.03132400126188833 0.03215884867600149 0.032636569361185364 0.024314004172549575 -0.8692699593914762 0.48285943000112097
2630000000.0 -0.2284661408654217 0.9660503234269496 0.03163931939914262 0.03224275730763113 0.03291849934721158 0.024307645834533986 -0.8682148275947457 0.4845990779917385
2640000000.0 -0.2227691040347011 0.9672485216763469 0.03195678162189438 0.032325384218104485 0.03320150783522986 0.02429930568050972 -0.8671561891320712 0.4863349346942314
2650000000.0 -0.21706507809371864 0.9684129878879945 0.03227638296756514 0.03240671494231214 0.03348556788151438 0.024288975788488047 -0.866094207552117 0.4880669645139933
2660000000.0 -0.2113544750029955 0.9695440121164546 0.03259811839837171 0.0324867358686642 0.03377065267965099 0.024276649506558147 -0.8650290529920379 0.48979513945182124
2670000000.0 -0.20563768666580876 0.9706419094637406 0.03292198278754298 0.032565434225534526 0.034056735638127625 0.024262321416806818 -0.8639609025778109 0.49151943960388156
2680000000.0 -0.19991508361829782 0.9717070202893932 0.03324797105065614 0.03264279816040951 0.03434379039428471 0.024245987294282623 -0.8628899401218635 0.4932398538585772
2690000000.0 -0.19418701315140077 0.9727397085762219 0.03357607820277937 0.03271881674832711 0.03463179092726085 0.024227644016467403 -0.8618163561221753 0.49495638049657337
2700000000.0 -0.18845379773019486 0.97374036174471 0.03390629938834427 0.032793480003910754 0.03492071152714385 0.024207289600667 -0.8607403472636445 0.49666902778916966
2710000000.0 -0.18271573360206148 0.9747093894168707 0.03423863003572497 0.03286677890248191 0.03521052685930755 0.024184923100503602 -0.859662116915457 0.4983778147942316
2720000000.0 -0.17697308911160106 0.9756472226566688 0.03457306584384888 0.032938705433722855 0.035501211954958145 0.024160544579161516 -0.8585818741320767 0.5000827719559865
2730000000.0 -0.17122610312632414 0.9765543128615232 0.03490960296954723 0.033009252572306975 0.03579274225270991 0.024134155057012784 -0.8574998340537789 0.501783942100818
2740000000.0 -0.1654749839184858 0.9774311309419347 0.0352482379924862 0.033078414296268815 0.0360850935860324 0.024105756482799594 -0.8564162172067994 0.5034813805346988
2750000000.0 -0.15971990756458238 0.9782781661747951 0.03558896812592788 0.03314618561154737 0.036378242135930654 0.024075351727561683 -0.8553312496043528 0.5051751567411468
2760000000.0 -0.15396101642659962 0.9790959250036813 0.03593179120273907 0.033212562544322116 0.03667216447420977 0.02404294448285127 -0.8542451617489251 0.5068653542764988
2770000000.0 -0.14819841812753792 0.9798849301289265 0.03627670581965869 0.03327754213654436 0.03696683744538401 0.024008539312445752 -0.8531581887337033 0.5085520721668835
2780000000.0 -0.14243218416263748 0.9806457194569838 0.03662371139521496 0.03334112243126738 0.03726223820586608 0.023972141629057125 -0.852070569446641 0.5102354253055841
2790000000.0 -0.1366623485658064 0.9813788447198327 0.036972808311156624 0.033403302494575904 0.03755834413328305 0.02393375765948431 -0.8509825463720178 0.5119155456488542
2800000000.0 -0.13088890652140137 0.9820848705807054 0.037323997945642465 0.0334640823694028 0.037855132786394796 0.02389339450235642 -0.8498943646963554 0.513592582812065
2810000000.0 -0.1251118133982013 0.9827643733935958 0.03767728280650792 0.03352346309618588 0.03815258181868374 0.023851060166734328 -0.8488062715123811 0.5152667047676809
2820000000.0 -0.11933098316409438 0.9834179403775645 0.038032666616148306 0.033581446630731315 0.0384506689567344 0.023806763591564913 -0.8477185156258524 0.5169380990403224
2830000000.0 -0.11354628726504781 0.9840461681288791 0.03839015439167434 0.033638035905978726 0.038749371860629864 0.023760514730955667 -0.8466313462616528 0.5186069735065411
2840000000.0 -0.1077575533309266 0.984649661997828 0.038749752563665016 0.033693234741507434 0.039048668138609986 0.023712324637800385 -0.8455450126709506 0.5202735568895112
2850000000.0 -0.1019645634573215 0.9852290347209645 0.03911146906675252 0.03374704784715103 0.0393485352225405 0.023662205611492286 -0.8444597624397845 0.5219380998592071
2860000000.0 -0.09616705309494668 0.9857849052163932 0.039475313425864016 0.033799480783307426 0.03964895034575927 0.02361017129116772 -0.8433758412993135 0.5236008760313459
2870000000.0 -0.0903647092729398 0.9863178981129264 0.03984129686612638 0.033850539927329774 0.03994989043282541 0.02355623683501954 -0.84229349163496 0.5252621822654876
2880000000.0 -0.08455716922984635 0.9868286420299399 0.04020943239459227 0.03390023245319281 0.04025133210862837 0.023500419109816182 -0.8412129512988821 0.5269223400665353
2890000000.0 -0.07874401801105821 0.9873177689667478 0.04057973493624702 0.033948566284548676 0.0405532516634038 0.02344273690842259 -0.8401344521195377 0.5285816960869817
2900000000.0 -0.07292478715364914 0.9877859129212982 0.04095222139765619 0.03399555005761731 0.04085562500576389 0.023383211188414174 -0.8390582191180103 0.5302406227280466
2910000000.0 -0.06709895224813603 0.9882337088794941 0.0413269108151515 0.03404119308871241 0.04115842771241223 0.023321865318947105 -0.8379844686181406 0.5318995192454986
2920000000.0 -0.06126593078411207 0.9886617913406038 0.04170382441717799 0.034085505327564956 0.041461635034530896 0.023258725417983156 -0.8369134064636757 0.5335588118545053
2930000000.0 -0.05542507945766169 0.9890707933601818 0.04208298578818484 0.034128497320809366 0.04176522198196608 0.023193820623412374 -0.8358452268315296 0.5352189552374084
2940000000.0 -0.04957569165545527 0.9894613445314273 0.04246442093901256 0.0341701801635319 0.042069163433978055 0.02312718347913393 -0.8347801104475362 0.5368804323526174
2950000000.0 -0.04371699431712199 0.9898340700481826 0.042848158452707896 0.03421056547941565 0.04237343426519792 0.02305885024213525 -0.8337182221019276 0.5385437552465763
2960000000.0 -0.037848144776746674 0.9901895881836636 0.04323422962391779 0.03424966535259034 0.042678009521637625 0.022988861347340534 -0.8326597093660194 0.5402094655670173
2970000000.0 -0.03196822718707121 0.9905285087331557 0.043622668601576035 0.03428749225758627 0.042982864700738845 0.02291726175350677 -0.8316046999070413 0.5418781350782075
2980000000.0 -0.02607624881039075 0.9908514304294413 0.04401351249622514 0.03432405906433803 0.043287975963808914 0.022844101360813295 -0.8305532997045195 0.5435503656799642
2990000000.0 -0.020171135778246786 0.9911589381948969 0.04440680156815917 0.034359378938573895 0.04359332058402419 0.022769435457427434 -0.8295055902649388 0.5452267898276583
3000000000.0 -0.014251728881040818 0.9914516006405246 0.04480257940036155 0.03439346529556081 0.043898877263966934 0.022693325146133394 -0.8284616267359566 0.5469080706562853
