! Created with skrf 2.1.0 (http://scikit-rf.org).
# Hz S RI R 50.0 
!freq ReS11 ImS11 ReS21 ImS21 ReS12 ImS12 ReS22 ImS22
500000000.0 -0.9749649597177114 0.1937469095707109 0.0012643028822463234 0.004794691888720889 0.0013769967782401552 0.006149574810447834 -0.9916372161872737 0.09350032401420476
510000000.0 -0.9740783177166301 0.19864158531327203 0.0012607042434910638 0.004944977115079626 0.0014226544572445684 0.006224452857216557 -0.9915276792022903 0.09522817813542019
520000000.0 -0.9731707571986133 0.20355171441649067 0.0012594586596334717 0.005095501892205419 0.0014666508468834131 0.006301809910519938 -0.9914200359566074 0.09696484079714404
530000000.0 -0.9722410453849282 0.20847603307700663 0.0012605185658293645 0.005246226767050909 0.001509203289809733 0.006381613612701005 -0.9913135735431906 0.09871025265504248
540000000.0 -0.971288038115218 0.21341328676649446 0.0012638379116979989 0.005397114622434617 0.0015505183221011627 0.006463825081867893 -0.9912076136518001 0.10046432108411088
550000000.0 -0.9703106799608135 0.2183622350849001 0.001269372113503753 0.0055481304758887694 0.0015907918724112904 0.006548399694508247 -0.9911015123659799 0.10222692353341885
560000000.0 -0.9693080026191748 0.2233216542870168 0.0012770779865442735 0.005699241294573047 0.001630209503919128 0.00663528780295365 -0.9909946603608366 0.10399791109109043
570000000.0 -0.9682791238607671 0.2282903414518357 0.0012869136828152418 0.005850415844663772 0.0016689466749750313 0.006724435411730804 -0.990886482401477 0.10577711118962022
580000000.0 -0.9672232444990357 0.23326711727317032 0.0012988386172968407 0.006001624555670222 0.0017071690212113386 0.0068157847967496256 -0.9907764366419263 0.10756433030152414
590000000.0 -0.9661396463520211 0.23825082885803894 0.0013128134002649329 0.00615283940109413 0.001745032659169429 0.0069092750808144926 -0.9906640144245571 0.10935935713534713
600000000.0 -0.9650276883608668 0.24324035262719884 0.0013287997645613284 0.006304033800835004 0.0017826845033580801 0.007004842759834971 -0.9905487392798208 0.11116196453206909
610000000.0 -0.9638868035227751 0.2482345960188407 0.0013467604992767747 0.006455182535768729 0.0018202626001747174 0.007102422190699918 -0.9904301664262973 0.11297191186189348
620000000.0 -0.9627164949037378 0.2532324995035403 0.0013666593822160076 0.006606261672967376 0.0018578964605635614 0.007201946039723017 -0.9903078815710183 0.1147889471214112
630000000.0 -0.9615163315723513 0.2582330384223819 0.0013884611225064936 0.006757248509015218 0.0018957074123599658 0.007303345685413056 -0.9901815006098785 0.11661280903112134
640000000.0 -0.9602859449117043 0.26323522366629626 0.0014121313011354573 0.006908121517899365 0.0019338089482309508 0.007406551587867519 -0.9900506677281703 0.11844322873333554
650000000.0 -0.9590250240474931 0.2682381029175875 0.0014376363240184958 0.0070588603049850695 0.001972307076086917 0.0075114936231696 -0.9899150556011904 0.12027993109034271
660000000.0 -0.9577333123297522 0.273240760778096 0.0014649433727604855 0.007209445573723216 0.0020113006762575367 0.00761810137870755 -0.9897743632948497 0.12212263668294904
670000000.0 -0.956410602801522 0.2782423194104417 0.0014940203664307965 0.007359859095585874 0.0020508818457315482 0.007726304422966244 -0.9896283160662739 0.12397106310922211
680000000.0 -0.9550567343841632 0.28324193832137273 0.0015248359277537078 0.007510083684940789 0.002091136244762362 0.007836032535679051 -0.9894766638643221 0.12582492588349153
690000000.0 -0.9536715881966888 0.2882388143157585 0.0015573593518130062 0.007660103173558009 0.002132143434940196 0.007947215917053106 -0.9893191804300643 0.12768394003559538
700000000.0 -0.9522550837295862 0.29323218045178845 0.0015915605833297386 0.007809902395488564 0.002173977209759455 0.00805978536421437 -0.9891556623971768 0.12954782091022643
710000000.0 -0.9508071750892756 0.2982213061263679 0.0016274101964361823 0.007959467165055453 0.0022167059142922494 0.008173672424544462 -0.9889859278921843 0.13141628526649032
720000000.0 -0.9493278484172588 0.3032054956226331 0.0016648793791638687 0.00810878426689952 0.002260392755329167 0.008288809522781333 -0.9888098161346577 0.13328905207754863
730000000.0 -0.9478171177918567 0.30818408744285475 0.0017039399228646528 0.008257841431882273 0.002305096100547503 0.00840513006937233 -0.9886271856372488 0.1351658432303317
740000000.0 -0.9462750232175234 0.31315645285835664 0.0017445642162518653 0.008406627330683803 0.002350869762806546 0.008522568548453733 -0.988437914005628 0.13704638452534615
750000000.0 -0.9447016270936263 0.3181219951018319 0.001786725237287697 0.00855513154932847 0.002397763272934801 0.00864106058722156 -0.9882418962383333 0.13893040577648894
760000000.0 -0.9430970123669242 0.32308014792257767 0.0018303965574896373 0.00870334458039397 0.0024458221363704174 0.008760543007048623 -0.9880390444264748 0.14081764211089115
770000000.0 -0.9414612798557233 0.3280303741289143 0.0018755523393674482 0.008851257798885558 0.0024950880771249335 0.00888095386405564 -0.9878292862533861 0.1427078336687246
780000000.0 -0.9397945463414145 0.33297216413699 0.0019221673376122444 0.00899886345215162 0.0025455992711939713 0.009002232476522248 -0.9876125643941642 0.1446007268030318
790000000.0 -0.9380969425173749 0.3379050351460292 0.0019702169116994133 0.009146154632641273 0.0025973905536592506 0.009124319437868214 -0.9873888358151386 0.14649607377946408
800000000.0 -0.9363686115810401 0.3428285290515243 0.0020196770225412238 0.009293125259824078 0.0026504936272312464 0.009247156627220409 -0.9871580702733095 0.14839363357600077
810000000.0 -0.9346097074612081 0.3477422115131422 0.0020705242472263343 0.009439770062031443 0.0027049372420147374 0.00937068720472219 -0.9869202502157421 0.15029317198260084
820000000.0 -0.9328203934698367 0.3526456706891497 0.002122735784010282 0.009586084546012317 0.0027607473723934624 0.00949485560612974 -0.9866753694787651 0.15219446180075394
830000000.0 -0.9310008414557216 0.35753851544275045 0.002176289457462853 0.009732064978533388 0.0028179473767918177 0.009619607532076713 -0.9864234325874618 0.1540972831430173
840000000.0 -0.9291512303611802 0.36242037483636624 0.002231163732116475 0.009877708357077753 0.0028765581410665716 0.009744889931677204 -0.9861644541548937 0.15600142363240616
850000000.0 -0.927271745652281 0.3672908962117295 0.0022873377176796566 0.010023012383431338 0.0029365982190090387 0.00987065098498864 -0.9858984579815627 0.15790667830177976
860000000.0 -0.9253625781264923 0.3721497446622576 0.0023447911750272615 0.010167975435326916 0.002998083948987849 0.009996840084283132 -0.9856254767543952 0.15981284989303346
870000000.0 -0.9234239238705177 0.3769966018062505 0.0024035045262918377 0.010312596540097224 0.00306102957516119 0.01012340781499152 -0.9853455505466429 0.16171974865637873
880000000.0 -0.9214559831612344 0.3818311646536495 0.0024634588590763144 0.010456875332828365 0.0031254473455063062 0.010250305933495336 -0.9850587271168457 0.1636271929493649
890000000.0 -0.9194589603038003 0.38665314477170726 0.0025246359330286347 0.010600812050558048 0.003191347608812347 0.010377487359537304 -0.9847650606087289 0.1655350083360213
900000000.0 -0.9174330628832174 0.391462267849388 0.0025870181815652957 0.010744407478556135 0.0032587389001476484 0.010504906149370058 -0.9844646114503895 0.16744302858576535
910000000.0 -0.9153785019298506 0.39625827235407174 0.002650588717742611 0.010887662907650326 0.003327628025419315 0.010632517476533583 -0.9841574453541104 0.16935109487236638
920000000.0 -0.913295491280478 0.4010409092815693 0.002715331336108191 0.011030580141291808 0.0033980201282853254 0.010760277628292092 -0.983843632916196 0.17125905597287422
930000000.0 -0.9111842474335208 0.4058099415938908 0.0027812305104104756 0.011173161440699351 0.0034699187632993094 0.010888144019810883 -0.9835232494164357 0.17316676826638822
940000000.0 -0.9090449891842904 0.4105651433398357 0.0028482713964051174 0.011315409481282845 0.003543325957945987 0.011016075125570055 -0.9831963740184568 0.1750740955329906
950000000.0 -0.9068779379317562 0.4153062996558263 0.002916439827333979 0.011457327337012583 0.0036182422712236913 0.011144030527609948 -0.9828630891692951 0.1769809089524435
960000000.0 -0.9046833166534833 0.4200332059375863 0.002985722310034227 0.011598918456154036 0.003694666853822038 0.011271970930862785 -0.9825234805998398 0.178887087003115
970000000.0 -0.9024613508447729 0.4247456679788242 0.0030561060228431304 0.011740186595439768 0.0037725975004833834 0.011399858083854731 -0.9821776365247047 0.18079251496068952
980000000.0 -0.9002122675090077 0.42944350137303305 0.0031275788080023016 0.011881135836115055 0.003852030699152302 0.011527654875485847 -0.9818256473429199 0.18269708549705746
990000000.0 -0.8979362953013322 0.4341265312658067 0.0032001291642868943 0.012021770508475508 0.003932961689501945 0.011655325276784412 -0.9814676056380118 0.1846006976791365
1000000000.0 -0.8956336643165363 0.43879459255681863 0.0032737462375096765 0.012162095198570526 0.00401538451176364 0.011782834396448307 -0.981103605078596 0.18650325746777202
1010000000.0 -0.8933046061289825 0.44344752943981736 0.003348419811882302 0.012302114703881345 0.004099292052919718 0.011910148441687252 -0.9807337408192283 0.18840467741669953
1020000000.0 -0.8909493534657388 0.44808519517907996 0.003424140298927197 0.012441833990110535 0.004184676104753197 0.012037234790608342 -0.9803581088005783 0.19030487617144948
1030000000.0 -0.8885681396254589 0.45270745261069345 0.003500898725445986 0.012581258199411988 0.004271527412674282 0.012164061968854573 -0.979976805450824 0.19220377876849362
1040000000.0 -0.8861611990349417 0.4573141732636009 0.0035786867200384835 0.012720392608693981 0.0043598357306416195 0.012290599656543322 -0.9795899276860125 0.19410131593432012
1050000000.0 -0.8837287663546267 0.46190523839652514 0.003657496501973532 0.012859242588292706 0.004449589871698151 0.012416818728709023 -0.979197572211194 0.19599742468464312
1060000000.0 -0.8812710764910763 0.4664805377348408 0.0037373208613922524 0.012997813612899069 0.004540777770529983 0.012542691274560307 -0.9787998359216231 0.19789204742370323
1070000000.0 -0.8787883641231929 0.4710399706229857 0.003818153147777479 0.013136111202621712 0.004633386534905712 0.012668190577656176 -0.9783968149033673 0.19978513184361707
1080000000.0 -0.8762808635794566 0.4755834453564938 0.003899987255266738 0.013274140934909966 0.004727402509548361 0.012793291176748482 -0.9779886049347469 0.20167663122389107
1090000000.0 -0.8737488086209537 0.48011087900645816 0.003982817604665561 0.013411908427634543 0.004822811334552794 0.012917968843736579 -0.977575300887305 0.20356650403096666
1100000000.0 -0.8711924314530176 0.48462219823757496 0.004066639125545307 0.013549419274315489 0.004919598009496652 0.013042200591536964 -0.9771569964272977 0.20545471321792996
1110000000.0 -0.8686119631058028 0.4891173383007972 0.004151447242050558 0.013686679078574595 0.0050177469572961955 0.013165964729296655 -0.9767337845162315 0.2073412269242195
1120000000.0 -0.8660076325240488 0.49359624379371975 0.004237237853739144 0.0138236934513545 0.005117242087879026 0.013289240826102156 -0.9763057564128854 0.20922601767566307
1130000000.0 -0.863379666479772 0.49805886790913045 0.00432400732044199 0.013960467917974277 0.005218066871577688 0.013412009710069887 -0.975873002173732 0.2111090625842694
1140000000.0 -0.8607282888618744 0.5025051729269068 0.004411752444890034 0.014097007986983793 0.005320204395677461 0.013534253526465754 -0.9754356101549203 0.212990342648532
1150000000.0 -0.8580537202384578 0.5069351299043212 0.004500470453554205 0.014233319120154492 0.005423637446327879 0.013655955669703358 -0.9749936671126499 0.21486984315345886
1160000000.0 -0.8553561777670661 0.5113487181919599 0.004590158984684422 0.014369406702309327 0.0055283485689620795 0.01377710082404566 -0.9745472580047616 0.21674755347099325
1170000000.0 -0.8526358744828395 0.5157459258366803 0.004680816068380429 0.014505276043817041 0.005634320138576034 0.013897674938136026 -0.9740964658920194 0.2186234662603546
1180000000.0 -0.84989301862293 0.5201267490374488 0.0047724401111457725 0.014640932372720065 0.0057415344332184814 0.014017665206380729 -0.9736413717388244 0.22049757796854164
1190000000.0 -0.8471278135970779 0.5244911921462244 0.0048650298817161 0.014776380857881419 0.005849973699911119 0.014137060074874485 -0.9731820546140546 0.22236988863088497
1200000000.0 -0.8443404575303423 0.5288392671454253 0.004958584499922502 0.014911626553504427 0.005959620221448948 0.014255849204693995 -0.9727185914926807 0.22424040107176124
1210000000.0 -0.8415311422318045 0.5331709934662617 0.005053103413209209 0.015046674424052341 0.006070456385673007 0.014374023447448212 -0.9722510571561473 0.22610912170527186
1220000000.0 -0.8387000535578412 0.5374863976703449 0.005148586393046306 0.015181529359227126 0.006182464749840715 0.01449157481972283 -0.9717795238932929 0.22797605943605434
1230000000.0 -0.8358473704379036 0.5417855133928218 0.005245033516563217 0.015316196141039679 0.006295628107016803 0.014608496489703977 -0.971304062101141 0.2298412261601748
1240000000.0 -0.8329732648457793 0.5460683803389439 0.005342445157369563 0.015450679458882564 0.006409929540016236 0.0147247827325574 -0.9708247395854288 0.23170463656597465
1250000000.0 -0.8300779011852061 0.5503350445386875 0.005440821973665477 0.015584983898379466 0.006525352488289599 0.014840428857881664 -0.9703416219615014 0.23356630763509356
1260000000.0 -0.8271614360198061 0.5545855573686721 0.005540164899137887 0.015719113967202183 0.006641880799560075 0.014955431246016532 -0.9698547722543631 0.23542625864341993
1270000000.0 -0.8242240179028193 0.5588199755402286 0.005640475129901864 0.015853074063305935 0.006759498785291626 0.01506978721893828 -0.9693642512993526 0.23728451136212345
1280000000.0 -0.8212657867039748 0.5630383604411606 0.005741754123402101 0.015986868492819793 0.006878191268602971 0.015183495046706645 -0.9688701174423231 0.23914108945868268
1290000000.0 -0.8182868739012562 0.5672407773625014 0.005844003581098682 0.01612050147773977 0.006997943632699025 0.015296553881791438 -0.9683724265399606 0.24099601869792206
1300000000.0 -0.8152874019610372 0.5714272953872828 0.005947225451389377 0.01625397714434149 0.007118741857103485 0.01540896370049517 -0.9678712318600172 0.24284932654319497
1310000000.0 -0.8122674842422637 0.5755979867442234 0.006051421918402496 0.0163872995496765 0.0072405725671403805 0.0155207252581359 -0.9673665846809469 0.24470104235720314
1320000000.0 -0.8092272248857183 0.579752926273688 0.006156595397114854 0.016520472641070594 0.007363423055603774 0.015631840036661626 -0.9668585332923919 0.24655119700322475
1330000000.0 -0.8061667186618185 0.5838921907285667 0.006262748529622243 0.016653500302180182 0.007487281323801431 0.015742310164833944 -0.9663471238944806 0.2483998229460191
1340000000.0 -0.8030860510667495 0.5880158581912035 0.006369884184162401 0.016786386321362045 0.00761213610317673 0.015852138390062703 -0.965832399997983 0.2502469538528647
1350000000.0 -0.7999852977951892 0.5921240079659746 0.006478005449176341 0.016919134427923952 0.007737976871743284 0.015961327987926918 -0.9653144029240962 0.252092624894543
1360000000.0 -0.796864525494462 0.5962167194645215 0.006587115633499611 0.017051748259413482 0.007864793883055351 0.016069882738392573 -0.9647931715039001 0.25393687224617717
1370000000.0 -0.7937237911741811 0.6002940719871476 0.0066972182615840275 0.017184231387296866 0.007992578167365252 0.016177806834046852 -0.9642687418778568 0.25577973338816284
1380000000.0 -0.7905631425762412 0.604356143804778 0.006808317077063404 0.017316587292946908 0.008121321547069914 0.0162851048266354 -0.963741148195571 0.25762124650697915
1390000000.0 -0.7873826180688597 0.6084030123090838 0.006920416042097043 0.017448819422272062 0.00825101663984935 0.0163917815914308 -0.9632104219149883 0.2594614508959328
1400000000.0 -0.7841822471478713 0.6124347527292244 0.0070335193316800266 0.017580931111508394 0.008381656855773694 0.016497842225538073 -0.9626765925020746 0.26130038655588705
1410000000.0 -0.780962050292721 0.6164514379922419 0.007147631342372089 0.017712925650780923 0.008513236400967922 0.016603292063052385 -0.9621396866298153 0.26313809409591143
1420000000.0 -0.7777220392676603 0.6204531384229997 0.007262756689113155 0.01784480624766074 0.008645750261656229 0.016708136523661595 -0.9615997289781119 0.26497461503388114
1430000000.0 -0.7744622176226231 0.6244399206589855 0.007378900204465556 0.01797657601998612 0.008779194190167853 0.016812381140754083 -0.9610567418325138 0.2668099911969645
1440000000.0 -0.7711825804867474 0.628411847768799 0.007496066947480239 0.018108238058567736 0.008913564718820698 0.016916031461366395 -0.9605107453836634 0.2686442649220699
1450000000.0 -0.7678831154346308 0.6323689785859418 0.007614262194222577 0.018239795329292652 0.00904885909733223 0.017019093047010145 -0.9599617573265524 0.2704774789563002
1460000000.0 -0.7645638021223102 0.6363113673601011 0.007733491454510471 0.01837125075288058 0.009185075295321334 0.017121571368593984 -0.9594097932600708 0.2723096762571995
1470000000.0 -0.7612246135447838 0.6402390632587628 0.007853760456455233 0.018502607157314263 0.009322211997949725 0.017223471790016667 -0.9588548668855702 0.27414090019300963
1480000000.0 -0.7578655153321034 0.6441521102240011 0.007975075164247423 0.018633867285809066 0.009460268534632903 0.017324799537008904 -0.9582969893069242 0.2759711942429045
1490000000.0 -0.7544864672916342 0.6480505465444762 0.008097441771656019 0.018765033788225347 0.009599244895659104 0.017425559656374538 -0.957736169928808 0.27780060189704986
1500000000.0 -0.751087422763873 0.6519344045604281 0.008220866703529539 0.018896109248348645 0.009739141664615137 0.017525756959426663 -0.9571724157570595 0.27962916665673393
1510000000.0 -0.7476683297970304 0.6558037102584477 0.008345356623608309 0.019027096112276907 0.00987996001069288 0.017625396005826903 -0.9566057319967203 0.28145693213423856
1520000000.0 -0.7442291311226811 0.6596584834718223 0.008470918423095731 0.019157996767659148 0.010021701654743507 0.017724481092996788 -0.9560361216524104 0.2832839417529366
1530000000.0 -0.7407697648810532 0.6634987373913733 0.008597559242411481 0.019288813469450126 0.010164368812553792 0.01782301619647468 -0.9554635861271761 0.28511023884709696
1540000000.0 -0.7372901648189735 0.6673244781297455 0.008725286453569929 0.019419548367399238 0.010307964191210684 0.01792100497269444 -0.9548881244217751 0.2869358664616873
1550000000.0 -0.7337902608377042 0.6711357052986406 0.008854107662522762 0.019550203491941948 0.010452490924691039 0.01801845073733826 -0.9543097338340383 0.2887608672522106
1560000000.0 -0.7302699794713441 0.6749324115149842 0.008984030729768782 0.019680780741801473 0.010597952543707805 0.018115356451867015 -0.9537284099582611 0.29058528388442684
1570000000.0 -0.726729244244447 0.6787145820309057 0.00911506374459215 0.019811281887447626 0.010744352974987633 0.018211724689675066 -0.9531441462851615 0.2924091583340575
1580000000.0 -0.7231679763281536 0.6824821955009699 0.00924721501964931 0.019941708570046277 0.010891696446353726 0.018307557677934894 -0.9525569348008746 0.29423253218657586
1590000000.0 -0.7195860945733241 0.6862352230470967 0.009380493146168635 0.020072062252388053 0.011039987491224444 0.018402857226811502 -0.9519667654864093 0.2960554467366278
1600000000.0 -0.7159835159967227 0.6899736290994685 0.009514906903037218 0.020202344298522017 0.011189230916182628 0.018497624789791795 -0.9513736266176827 0.297877942587857
1610000000.0 -0.7123601566188036 0.6936973710816067 0.009650465332892566 0.02033255584518343 0.011339431736117608 0.01859186142639748 -0.9507775050648974 0.2997000597524241
1620000000.0 -0.7087159313210197 0.6974063991827159 0.009787177716382435 0.020462697918401194 0.01149059518141064 0.018685567826921927 -0.9501783856923347 0.3015218375505863
1630000000.0 -0.7050507544568709 0.7011006572402417 0.009925053545270335 0.02059277132822713 0.011642726654618456 0.018778744291161324 -0.9495762519578517 0.30334331491031846
1640000000.0 -0.7013645401734679 0.7047800821044867 0.010064102534883617 0.02072277672352625 0.011795831682498011 0.01887139078704036 -0.9489710858130421 0.30516452966688434
1650000000.0 -0.6976572026043705 0.7084446043552277 0.01020433464485709 0.020852714536567007 0.011949915905780838 0.018963506892414782 -0.948362867502792 0.30698551916238687
1660000000.0 -0.6939286565495808 0.7120941478994504 0.010345760027333306 0.020982585038730645 0.012104985069762653 0.019055091877036315 -0.9477515758653997 0.30880631984543644
1670000000.0 -0.6901788171308817 0.7157286307266711 0.010488389069497683 0.021112388264942585 0.012261044972666089 0.019146144679926955 -0.9471371882325128 0.31062696727070244
1680000000.0 -0.6864076007297422 0.7193479647262493 0.010632232364334315 0.021242124049422998 0.0124181014847447 0.01923666392096311 -0.9465196806283896 0.3124474961984236
1690000000.0 -0.6826149246905936 0.7229520559149051 0.01077730068234152 0.02137179200227359 0.01257616047310766 0.01932664793745531 -0.9458990275711002 0.3142679403942684
1700000000.0 -0.6788007078166215 0.7265408049372984 0.010923605019027303 0.021501391511553624 0.0127352278482551 0.01941609479939095 -0.9452752022717466 0.31608833252883045
1710000000.0 -0.6749648705809843 0.7301141068496737 0.011071156561319706 0.02163092174281382 0.012895309512629518 0.0195050023259202 -0.9446481765346403 0.31790870467726234
1720000000.0 -0.6711073350145789 0.7336718516329839 0.01121996667038554 0.021760381597304583 0.013056411370973929 0.019593368090891346 -0.9440179212578534 0.31972908731921995
1730000000.0 -0.66722802516843 0.7372139244790831 0.011370046875375623 0.02188976977206874 0.013218539332145963 0.01968118946828313 -0.9433844055328777 0.3215495103384316
1740000000.0 -0.6633268669540984 0.7407402055741394 0.011521408907452702 0.022019084673070535 0.013381699263825701 0.01976846363881 -0.9427475978450303 0.3233700022224896
1750000000.0 -0.6594037882722923 0.7442505708498428 0.011674064633564529 0.02214832448080529 0.013545897043631717 0.019855187613729956 -0.9421074650736789 0.3251905903627943
1760000000.0 -0.6554587194062282 0.74774489191427 0.011828026082835364 0.022277487127208083 0.01371113852042044 0.019941358226857712 -0.9414639731923056 0.32701130095424796
1770000000.0 -0.6514915926017739 0.7512230361946876 0.011983305456739009 0.022406570253352312 0.013877429542605988 0.02002697219887371 -0.94081708696874 0.3288321590952941
1780000000.0 -0.6475023422369746 0.7546848672109404 0.01213991505450333 0.022535571250856524 0.014044775962608082 0.020112026143094337 -0.9401667703655093 0.33065318838785107
1790000000.0 -0.6434909049324327 0.7581302448506576 0.012297867359999094 0.022664487256846236 0.014213183635458523 0.02019651654294834 -0.9395129861400762 0.33247441143722367
1800000000.0 -0.6394572196564567 0.7615590253497876 0.012457174933154458 0.02279331512722658 0.01438265841764965 0.020280439808889748 -0.9388556961447896 0.3342958492521826
1810000000.0 -0.6354012271568861 0.7649710615259331 0.012617850498488998 0.022922051434516335 0.01455320621927351 0.020363792281703468 -0.938194861227557 0.3361175216450942
1820000000.0 -0.6313228705147946 0.7683662028011445 0.012779906856543517 0.023050692485300985 0.014724832984104264 0.020446570206259583 -0.9375304414311477 0.3379394470318492
1830000000.0 -0.6272220948220513 0.7717442956666267 0.012943356933215227 0.02317923432941366 0.014897544728677473 0.020528769811867555 -0.9368623960948785 0.33976164233237177
1840000000.0 -0.6230988468643535 0.7751051832629646 0.013108213738748924 0.02330767270910508 0.01507134754015064 0.020610387248913575 -0.9361906833529414 0.34158412297036983
1850000000.0 -0.6189530756254876 0.778448705725019 0.01327449037628476 0.023436003107545084 0.01524624760435877 0.02069141862556522 -0.9355152611363766 0.3434069031738223
1860000000.0 -0.6147847316283223 0.7817747001339513 0.013442200036952677 0.023564220718032627 0.015422251220817544 0.02077186001702472 -0.9348360860713373 0.34522999537518057
1870000000.0 -0.6105937673993697 0.7850830007927568 0.013611355973415559 0.023692320463244678 0.015599364843631457 0.020851707438688437 -0.9341531145806686 0.34705341041141957
1880000000.0 -0.6063801366159824 0.7883734388063292 0.01378197150098299 0.023820296996648116 0.015777595063377038 0.02093095684809578 -0.933466302183305 0.3488771579252374
1890000000.0 -0.6021437949856072 0.791645842202761 0.013954060029948246 0.023948144676170992 0.015956948671683867 0.021009604154717473 -0.9327756038941611 0.3507012454639574
1900000000.0 -0.5978846993316727 0.7949000361053334 0.014127635002996308 0.0240758575858083 0.016137432648370892 0.021087645204915496 -0.9320809742242269 0.3525256792811885
1910000000.0 -0.5936028081989572 0.7981358423300688 0.014302709902654955 0.024203429534908085 0.016319054185733754 0.021165075758529783 -0.9313823669805789 0.35435046393620806
1920000000.0 -0.5892980810105524 0.8013530795671007 0.01447929827928301 0.02433085404332697 0.016501820748933402 0.021241891454723574 -0.93067973576576 0.35617560209514715
1930000000.0 -0.5849704789371594 0.804551563086966 0.014657413702496746 0.024458124386733063 0.016685740023719888 0.02131808785560824 -0.9299730336782243 0.35800109493055393
1940000000.0 -0.580619964233088 0.8077311046885669 0.014837069791086536 0.024585233532390383 0.016870819978589364 0.021393660356427865 -0.9292622133117244 0.3598269417223549
1950000000.0 -0.5762465004435025 0.8108915122960768 0.015018280179528727 0.024712174186031766 0.017057068902596763 0.021468604211121976 -0.9285472271551058 0.3616531400582608
1960000000.0 -0.5718500522688171 0.8140325902268247 0.01520105854424564 0.024838938762764592 0.01724449534235176 0.021542914466206348 -0.9278280273917243 0.3634796856332984
1970000000.0 -0.5674305859969622 0.8171541387054496 0.015385418561885272 0.024965519424362096 0.01743310820905705 0.02161658598787939 -0.9271045658996074 0.3653065722513344
1980000000.0 -0.56298806892166 0.8202559537852171 0.015571373937684038 0.02509190804715001 0.017622916701852516 0.021689613368060707 -0.9263767943502106 0.3671337922240744
1990000000.0 -0.5585224702374331 0.8233378267695223 0.015758938379582227 0.025218096225055005 0.017813930357528693 0.0217619909239459 -0.9256446645090587 0.368961335472551
2000000000.0 -0.5540337602826292 0.826399544775786 0.01594812562532161 0.025344075298556597 0.01800615906316476 0.021833712660295945 -0.9249081278336224 0.3707891903264962
2010000000.0 -0.5495219115794449 0.8294408897004372 0.016138949391892903 0.025469836304993783 0.01819961304124259 0.021904772247322336 -0.924167136074351 0.37261734312509476
2020000000.0 -0.5449868981037486 0.832461638486266 0.016331423398478928 0.02559537002677042 0.018394302819015294 0.021975162965855527 -0.9234216406731459 0.37444577811648905
2030000000.0 -0.5404286962022942 0.8354615626330492 0.016525561373330288 0.025720666954049745 0.01859023929037481 0.02204487766742246 -0.9226715935630135 0.3762744777585399
2040000000.0 -0.5358472845935893 0.8384404281766836 0.016721377046974028 0.025845717299224316 0.018787433648554223 0.02211390872907269 -0.9219169465668577 0.378103422418558
2050000000.0 -0.5312426445608254 0.8413979953697507 0.016918884128696385 0.02597051101015969 0.018985897376099667 0.02218224805820456 -0.9211576518977903 0.37993259027347753
2060000000.0 -0.5266147604337669 0.8443340184587651 0.017118096286254582 0.026095037719165864 0.019185642271812096 0.022249886989675265 -0.9203936619578016 0.3817619576094055
2070000000.0 -0.5219636195519848 0.8472482455237108 0.01731902722987256 0.026219286793305895 0.019386680397326123 0.022316816299107752 -0.9196249295368609 0.3835914987219376
2080000000.0 -0.5172892133537844 0.8501404183795249 0.017521690582562366 0.026343247314058987 0.019589024038286777 0.02238302613994063 -0.9188514081120901 0.38542118561589395
2090000000.0 -0.5125915370200023 0.8530102724945956 0.017726099992801784 0.026466908071207603 0.01979268572135202 0.022448506002438865 -0.9180730511479748 0.3872509883047404
2100000000.0 -0.5078705904654573 0.8558575363783372 0.017932269041233802 0.026590257529395808 0.019997678129940737 0.022513244695527266 -0.9172898132943957 0.38908087461037155
2110000000.0 -0.503126378411842 0.8586819321997126 0.018140211291362535 0.026713283881326974 0.020204014138681003 0.022577230286983614 -0.916501649187019 0.3909108101630792
2120000000.0 -0.498358911282518 0.8614831753165935 0.018349940249872267 0.026835975019181706 0.02041170667935158 0.022640450086508244 -0.9157085148454657 0.392740758600835
2130000000.0 -0.49356820523441963 0.8642609740660621 0.018561469368668343 0.02695831851093854 0.020620768791646833 0.022702890636786842 -0.9149103666734365 0.3945706811685266
2140000000.0 -0.48875428337865995 0.8670150303426707 0.0187748120652384 0.027080301610372354 0.02083121351794147 0.022764537637994395 -0.9141071619575664 0.39640053721795504
2150000000.0 -0.48391717561480735 0.8697450390752853 0.018989981676516655 0.02720191126481694 0.021043053852385783 0.02282537595098505 -0.9132988591675415 0.39823028360683077
2160000000.0 -0.47905691968953357 0.8724506888239907 0.019206991461743587 0.027323134089414017 0.02125630275066966 0.022885389569162386 -0.912485417654445 0.40005987509751384
2170000000.0 -0.4741735616926749 0.8751316613720787 0.019425854596995386 0.027443956378593606 0.02147097298794269 0.02294456161733096 -0.9116667980508902 0.4018892643572572
2180000000.0 -0.4692671567838833 0.8777876325039595 0.01964658416283238 0.027564364098228863 0.021687077160467427 0.023002874297097926 -0.9108429620705952 0.4037184017570454
2190000000.0 -0.46433776935526855 0.8804182717446567 0.01986919316064793 0.02768434287358306 0.021904627616935807 0.023060308939972886 -0.9100138729074662 0.405547235370204
2200000000.0 -0.4593854743486951 0.8830232430501019 0.02009369444767789 0.02780387797568812 0.0221236363661544 0.023116845923547145 -0.9091794950360266 0.40737571117190763
2210000000.0 -0.45441035731148466 0.8856022048678089 0.02032010075001814 0.02792295435633968 0.02234411505449687 0.023172464731166312 -0.9083397945100494 0.40920377303824274
2220000000.0 -0.44941251511724245 0.8881548108031072 0.020548424670755967 0.028041556598594385 0.02256607487463802 0.023227143945295917 -0.9074947390635751 0.4110313623453632
2230000000.0 -0.44439205707833646 0.8906807098036166 0.020778678648207295 0.028159668951134476 0.022789526472349057 0.0232808612307409 -0.9066442980098341 0.4128584187678465
2240000000.0 -0.43934910481559564 0.8931795469248164 0.02101087493048836 0.028277275303356837 0.023014479972400477 0.023333593378628767 -0.9057884427416564 0.4146848792786428
2250000000.0 -0.4342837931439478 0.8956509639677955 0.021245025611354156 0.028394359191417654 0.023240944799337748 0.023385316290132664 -0.904927146531055 0.4165106792466467
2260000000.0 -0.4291962709164866 0.8980945997273798 0.021481142544333295 0.02851090379244806 0.023468929668832857 0.02343600505046947 -0.9040603844305156 0.4183357515375535
2270000000.0 -0.4240867010154136 0.9005100911079006 0.021719237382704447 0.028626891932796106 0.02369844253825919 0.02348563392000564 -0.9031881341716306 0.4201600270106078
2280000000.0 -0.41895526128553506 0.9028970737398592 0.021959321513546983 0.02874230608676955 0.023929490505361466 0.02353417639180695 -0.9023103753665213 0.42198343471976
2290000000.0 -0.41380214456635406 0.9052551827483968 0.022201406102924877 0.028857128371733688 0.024162079762558467 0.023581605203188395 -0.9014270902076776 0.42380590151106234
2300000000.0 -0.4086275596624736 0.9075840537358821 0.022445501974828246 0.028971340574252654 0.024396215520967646 0.023627892430733904 -0.9005382636688737 0.4256273523223213
2310000000.0 -0.4034317308214746 0.9098833234372027 0.02269161970995668 0.02908492413638554 0.02463190197947887 0.023673009486359906 -0.8996438830053606 0.4274477101822426
2320000000.0 -0.3982148991172212 0.9121526310755008 0.022939769530829563 0.02919786014471404 0.02486914223829279 0.02371692723353836 -0.8987439386547785 0.42926689620998015
2330000000.0 -0.39297732171879546 0.9143916191227368 0.02318996132940657 0.029310129392439918 0.025107938294247987 0.023759615995664975 -0.897838423837306 0.4310848300129482
2340000000.0 -0.38771927259776306 0.9165999345090629 0.023442204622468918 0.029421712349193115 0.025348290930808256 0.02380104565254551 -0.8969273349572014 0.4329014291881856
2350000000.0 -0.38244104253914263 0.9187772294244297 0.02369650853077667 0.02953258917503792 0.02559019971988621 0.023841185708185712 -0.896010671503775 0.43471660981937127
2360000000.0 -0.3771429388444412 0.9209231627593993 0.023952881796946105 0.029642739742557146 0.02583366299522205 0.023880005357251162 -0.8950884366504626 0.4365302865781357
2370000000.0 -0.3718252858070564 0.9230374012449993 0.02421133270604472 0.029752143668415165 0.026078677769347997 0.023917473580717837 -0.8941606366583923 0.4383423726228251
2380000000.0 -0.3664884242036199 0.925119620445904 0.024471869097918358 0.029860780291440524 0.02632523974961343 0.023953559197926792 -0.8932272819754812 0.44015277969769784
2390000000.0 -0.3611327112119413 0.9271695059830443 0.02473449833000466 0.029968628752445332 0.026573343310246227 0.023988230987703637 -0.8922883866379852 0.4419614185341141
2400000000.0 -0.35575851981834977 0.9291867548043611 0.0249992272975206 0.030075667959349 0.02682298146622906 0.024021457749994864 -0.8913439684721293 0.44376819854871574
2410000000.0 -0.35036623897128316 0.9311710765450602 0.025266062369463313 0.03018187662925058 0.02707414588245332 0.024053208393528466 -0.8903940498936147 0.4455730284437388
2420000000.0 -0.34495627262332795 0.9331221944166234 0.025535009373846822 0.030287233345061334 0.027326826846794376 0.02408345204699497 -0.8894386573106411 0.44737581600827575
2430000000.0 -0.3395290393353458 0.9350398466517179 0.025806073621901175 0.03039171653890134 0.027581013317862783 0.024112158131512292 -0.888477821722757 0.44917646841708153
2440000000.0 -0.3340849714003856 0.936923787462056 0.02607925984424595 0.03049530456046745 0.027836692887922846 0.02413929646746491 -0.8875115785232784 0.4509748924308483
2450000000.0 -0.3286245146663974 0.9387737885720588 0.02635457221813506 0.030597975676722816 0.028093851872735224 0.024164837325957658 -0.8865399682002673 0.4527709944977261
2460000000.0 -0.32314812669408577 0.9405896400591518 0.02663201433283689 0.030699708144998148 0.028352475251817146 0.024188751567858994 -0.8855630360362098 0.45456468085315693
2470000000.0 -0.31765627695214754 0.9423711512815606 0.026911589183913894 0.03080048021484887 0.028612546775899306 0.024211010718956517 -0.8845808323094448 0.45635585821971314
2480000000.0 -0.31214944469615896 0.9441181521858868 0.02719329918018654 0.030900270185250638 0.02887404898034949 0.024231587004377702 -0.8835934125952765 0.45814443330861865
2490000000.0 -0.30662811861878725 0.9458304945965098 0.027477146127694488 0.030999056458304607 0.029136963237314704 0.02425045349407612 -0.8826008378660006 0.4599303136203633
2500000000.0 -0.30109279530735533 0.9475080524855068 0.0277631312467252 0.031096817530352927 0.02940126980230837 0.024267584147671804 -0.8816031748912502 0.4617134076455864
2510000000.0 -0.29554397795064213 0.949150723131642 0.02805125513899502 0.03119353211279071 0.02966694787747944 0.024282953877621936 -0.8806004956386603 0.46349362466500327
2520000000.0 -0.28998217531484266 0.9507584282390052 0.02834151783573627 0.03128917908106085 0.029933975698727924 0.02429653865754731 -0.879592878274357 0.46527087575156567
2530000000.0 -0.28440789979271675 0.9523311142150883 0.028633918767226957 0.0313837376362576 0.030202330566535485 0.024308315541190218 -0.8785804069625727 0.467045073370201
2540000000.0 -0.2788216662124371 0.9538687529967266 0.0289284568120635 0.03147718723057104 0.030471988966034407 0.02431826271830246 -0.8775631717655996 0.4688161323795506
2550000000.0 -0.27322399031749756 0.9553713426381376 0.02922513028716059 0.03156950769262352 0.030742926606226684 0.024326359596109015 -0.8765412691440707 0.4705839698318999
2560000000.0 -0.26761538709799426 0.9568389078491516 0.029523936989918745 0.03166067927657086 0.031015118544729197 0.0243325868300732 -0.8755148018564225 0.47234850557546837
2570000000.0 -0.26199636923243197 0.9582714999865278 0.029824874193060336 0.031750682653294726 0.03128853923654619 0.024336926318478416 -0.8744838790580043 0.4741096627532752
2580000000.0 -0.2563674451095442 0.9596691980316459 0.030127938691638913 0.03183949900823392 0.03156316260950636 0.02433936130943655 -0.8734486167017571 0.47586736780519623
2590000000.0 -0.2507291174855573 0.9610321080756424 0.030433126836321735 0.031927110072389076 0.031838962214326305 0.024339876342642668 -0.8724091372362106 0.47762155126800737
2600000000.0 -0.24508188166276826 0.9623603639086388 0.030740434581618542 0.03201349814942402 0.032115911230733804 0.024338457307077996 -0.8713655698047559 0.4793721481754643
2610000000.0 -0.23942622342484415 0.9636541266377034 0.031049857462541908 0.03209864620129298 0.0323939826363746 0.024335091409611462 -0.8703180504461081 0.48111909845973116
2620000000.0 -0.23376261762111483 0.9649135848916915 0.031361390736736744 0.032182537850963644 0.03267314920645294 0.024329767235520716 -0.869266721991434 0.48286234725028293
2630000000.0 -0.22809152649874334 0.9661389543702922 0.03167502935040869 0.032265157448557 0.03295338366271623 0.024322474646346133 -0.8682117341651326 0.48460184557418595
2640000000.0 -0.22241339758132467 0.967330477794805 0.03199076803135952 0.03234649011721154 0.03323465870631019 0.024313204872580825 -0.8671532435825091 0.4863375510559972
2650000000.0 -0.2167286619323465 0.968488424287136 0.03230860131573119 0.03242652176025225 0.033516947111847745 0.024301950387082178 -0.8660914138491924 0.4880694281172425
2660000000.0 -0.2110377328828232 0.9696130891019212 0.03262852366205006 0.03250523913680624 0.03380022178230424 0.02428870493472382 -0.8650264151595883 0.48979744877523257
2670000000.0 -0.20534100380935938 0.9707047925700162 0.03295052943670521 0.032582629848311506 0.03408445582586324 0.02427346349798527 -0.8639584246972571 0.49152159314303573
2680000000.0 -0.19963884683024094 0.9717638803311541 0.03327461304434538 0.032658682417821 0.03436962256921636 0.024256222257846315 -0.8628876263326001 0.49324185012634636
2690000000.0 -0.19393161093038258 0.9727907217216683 0.03360076898425524 0.03273338629876058 0.03465569567017266 0.02423697850516781 -0.8618142106220021 0.4949582180235294
2700000000.0 -0.18821962038075418 0.9737857096127318 0.03392899187937984 0.03280673188732504 0.03494264908673728 0.02421573068034252 -0.8607383743092506 0.4966707051240292
2710000000.0 -0.18250317334345736 0.9747492591983193 0.034259276630048366 0.03287871054415603 0.03523045714162244 0.024192478271882638 -0.8596603208229568 0.4983793305043282
2720000000.0 -0.17678254018104084 0.9756818072595514 0.03459161839986724 0.0329493146485642 0.035519094513286366 0.024167221791963234 -0.8585802592775803 0.5000841246277938
2730000000.0 -0.1710579618724557 0.9765838110804966 0.034926012802290574 0.033018537569958095 0.03580853627837288 0.024139962726315113 -0.8574984048740069 0.5017851303405307
2740000000.0 -0.16532964888268767 0.9774557476511564 0.03526245586493396 0.03308637368701542 0.03609875790026485 0.024110703507649496 -0.8564149781997226 0.5034824029688754
2750000000.0 -0.1595977795461863 0.9782981125429107 0.035600944239739966 0.0331528184131698 0.03638973518332647 0.024079447511733666 -0.8553302053298534 0.5051760120174266
2760000000.0 -0.15386249852918585 0.9791114187297534 0.03594147518851927 0.03321786818998965 0.036681444317961075 0.0240461989576683 -0.8542443168294687 0.5068660410644004
2770000000.0 -0.14812391578302278 0.9798961956972513 0.036284046726824 0.033281520483772725 0.036973861764749434 0.024010962961503242 -0.8531575478550082 0.5085525891586874
2780000000.0 -0.1423821051299764 0.9806529884083032 0.03662865768163798 0.03334377377207946 0.03726696429618199 0.023973745514603486 -0.8520701373583299 0.5102357712173083
2790000000.0 -0.13663710290189407 0.981382355936212 0.03697530783268701 0.033404627566834606 0.037560728908816635 0.02393455345022596 -0.8509823278882391 0.5119157192213215
2800000000.0 -0.13088890652140137 0.9820848705807054 0.037323997945642465 0.0334640823694028 0.037855132786394796 0.02389339450235642 -0.8498943646963554 0.513592582812065
2810000000.0 -0.12513747350324408 0.9827611166340021 0.037674729905579095 0.03352213969247131 0.03815015321688284 0.023850277345050592 -0.8488064949410097 0.5152665299892257
2820000000.0 -0.11938271983454429 0.9834116895576066 0.03802750680218129 0.03357880197914964 0.038445767574572354 0.023805211612198847 -0.8477189674939841 0.5169377483059902
2830000000.0 -0.11362451881810492 0.9840371944923108 0.038382333010384885 0.03363407266591268 0.038741953184396924 0.02375820798264728 -0.8466320316465036 0.5186064456689006
2840000000.0 -0.10786269974158531 0.9846382456281326 0.038739214309788134 0.033687956093236784 0.039038687340704516 0.02370927826316275 -0.8455459367162691 0.5202728508326186
2850000000.0 -0.10209704612284137 0.985215464824496 0.03909815797601709 0.033740457510245556 0.039335947186921474 0.023658435534917935 -0.8444609303559002 0.5219372145001616
2860000000.0 -0.09632729456280073 0.9857694803879444 0.03945917286792331 0.033791583035919816 0.039633709697673936 0.023605694244910977 -0.8433772583630222 0.5235998103218837
2870000000.0 -0.09055313293406661 0.986300926578322 0.039822269538571146 0.033841339626253034 0.039931951572762775 0.023551070382818645 -0.8422951631892247 0.5252609351935995
2880000000.0 -0.08477419897827305 0.986810441859911 0.040187460318137545 0.03388973505451466 0.04023064925047211 0.02349458166737299 -0.8412148827523357 0.5269209106580762
2890000000.0 -0.07899007787364237 0.9872986682564204 0.04055475945119716 0.03393677786468455 0.04052977887650997 0.02343624776010701 -0.8401366489457732 0.5285800834072528
2900000000.0 -0.07320030089260232 0.987766249929504 0.04092418316178386 0.03398247733447783 0.040829316260768536 0.02337609049939143 -0.8390606868546374 0.530238825883306
2910000000.0 -0.0674043429411349 0.9882138321228707 0.04129574980291159 0.034026843442799194 0.04112923693040976 0.023314134142153973 -0.8379872128656116 0.5318975373843773
2920000000.0 -0.061601620387785605 0.9886420596365113 0.041669479920351596 0.034069886822619466 0.04142951613909444 0.02325040569510277 -0.8369164328838622 0.5335566441692755
2930000000.0 -0.055791488360337975 0.9890515758151532 0.042045396417852876 0.034111618723851794 0.041730128953476685 0.023184935179306573 -0.8358485411460561 0.5352166009650695
2940000000.0 -0.04997323822605583 0.9894430204689575 0.04242352462886947 0.0341520509638582 0.04203105036560326 0.023117756008954188 -0.8347837184358697 0.5368778907757502
2950000000.0 -0.044146094459185575 0.9898170288742879 0.042803892463452016 0.03419119590625212 0.04233225541967167 0.023048905290674708 -0.8337221295992363 0.5385410256939153
2960000000.0 -0.03830921149648432 0.9901742291858973 0.043186530548547736 0.03422906639110306 0.042633719387957666 0.022978424279837213 -0.8326639222608141 0.5402065474136828
2970000000.0 -0.03246167018396857 0.9905152408126868 0.04357147237149689 0.0342656756629732 0.04293541804978989 0.02290635871766962 -0.8316092241386184 0.5418750277455557
2980000000.0 -0.026602474103468075 0.9908406717638755 0.04395875438758962 0.03430103737346163 0.04323732790172302 0.02283275923953302 -0.8305581412602442 0.5435470686349875
2990000000.0 -0.020730545376628363 0.9911511158347891 0.04434841620828141 0.03433516547912286 0.043539426602112345 0.022757681812041134 -0.8295107551773997 0.5452233025818872
3000000000.0 -0.014844720513287335 0.9914471500387712 0.04474050077353461 0.034368074192207124 0.043841693283852255 0.022681188149961316 -0.8284671210800483 0.5469043927641374
