! rfsim (KiCad + openEMS)
# HZ S RI R 50
5.000000e+08 -9.777869665e-01 1.562156054e-01 1.717070654e-03 5.556595442e-03 2.174849000e-03 -1.564804601e-02 -3.783929236e-04 3.499640492e-04
            9.955932264e-04 4.170657022e-03 -9.908449078e-01 9.136800284e-02 9.980448990e-04 4.836493579e-03 -2.858163460e-04 3.291749857e-04
            1.154342405e-03 -1.940567496e-02 1.338268576e-03 5.974478496e-03 -9.971899267e-01 1.078817831e-02 -3.771100792e-04 1.450400616e-03
            -3.906363265e-04 2.693540133e-04 -2.662145179e-04 2.729752965e-04 -3.092715270e-04 1.129232386e-03 -9.753722860e-01 8.874923314e-02
5.100000e+08 -9.776791005e-01 1.624706997e-01 1.752967815e-03 5.612222615e-03 1.659593989e-03 -1.253441011e-02 -3.880013832e-04 3.569356718e-04
            9.986136191e-04 4.313318402e-03 -9.907994964e-01 9.311194063e-02 9.824944254e-04 4.973168717e-03 -2.960790000e-04 3.419930410e-04
            5.419629056e-04 -1.634854044e-02 1.360155059e-03 6.039048022e-03 -9.978475031e-01 1.442926090e-02 -3.856463123e-04 1.481794713e-03
            -4.021371307e-04 2.810749052e-04 -2.776696497e-04 2.869071739e-04 -3.231558482e-04 1.162401212e-03 -9.748093419e-01 9.035607569e-02
5.200000e+08 -9.774703914e-01 1.687029398e-01 1.786875076e-03 5.670870543e-03 1.243126797e-03 -9.468305703e-03 -3.978538728e-04 3.646925032e-04
            1.003805129e-03 4.456333415e-03 -9.907543426e-01 9.486533480e-02 9.682754212e-04 5.110624822e-03 -3.063640663e-04 3.551266204e-04
            2.324468847e-05 -1.332553111e-02 1.379608719e-03 6.106552226e-03 -9.984105035e-01 1.802242133e-02 -3.943597273e-04 1.513804850e-03
            -4.136085511e-04 2.934092023e-04 -2.890538833e-04 3.012116090e-04 -3.369132824e-04 1.196100814e-03 -9.742391078e-01 9.195090360e-02
5.300000e+08 -9.771645173e-01 1.749101291e-01 1.819062512e-03 5.732530641e-03 9.195304367e-04 -6.451334068e-03 -4.079052963e-04 3.732303424e-04
            1.011138216e-03 4.599653201e-03 -9.907087829e-01 9.662808980e-02 9.553872507e-04 5.248828278e-03 -3.166615300e-04 3.685737152e-04
            -4.067093648e-04 -1.033862233e-02 1.396886520e-03 6.176994303e-03 -9.988848207e-01 2.156612890e-02 -4.032152041e-04 1.546427315e-03
            -4.250253549e-04 3.063503052e-04 -3.003560683e-04 3.158829488e-04 -3.505235913e-04 1.230322981e-03 -9.736619344e-01 9.353369304e-02
5.400000e+08 -9.767650384e-01 1.810903234e-01 1.849788527e-03 5.797182404e-03 6.831283974e-04 -3.484753144e-03 -4.181123210e-04 3.825430460e-04
            1.020583817e-03 4.743231698e-03 -9.906621864e-01 9.840007925e-02 9.438287103e-04 5.387746140e-03 -3.269616772e-04 3.823320386e-04
            -7.526149079e-04 -7.389480423e-03 1.412234693e-03 6.250366090e-03 -9.992761079e-01 2.505919889e-02 -4.121790275e-04 1.579657065e-03
            -4.363632671e-04 3.198905241e-04 -3.115655192e-04 3.309152397e-04 -3.639674022e-04 1.265058912e-03 -9.730781681e-01 9.510443483e-02
5.500000e+08 -9.762753955e-01 1.872418095e-01 1.879299800e-03 5.864794590e-03 5.284853756e-04 -5.695097290e-04 -4.284333877e-04 3.926227092e-04
            1.032113371e-03 4.887025432e-03 -9.906139553e-01 1.001811492e-01 9.335980391e-04 5.527346108e-03 -3.372550992e-04 3.963990460e-04
            -1.019005080e-03 -4.479490373e-03 1.425888679e-03 6.326649162e-03 -9.995897780e-01 2.850075992e-02 -4.212188940e-04 1.613487844e-03
            -4.475989771e-04 3.340211799e-04 -3.226720159e-04 3.463022572e-04 -3.772262109e-04 1.300299268e-03 -9.724881510e-01 9.666313359e-02
5.600000e+08 -9.756989102e-01 1.933630855e-01 1.907831312e-03 5.935326325e-03 4.504064673e-04 2.293730628e-03 -4.388287109e-04 4.034598339e-04
            1.045698824e-03 5.030993322e-03 -9.905635246e-01 1.019711211e-01 9.246929273e-04 5.667596513e-03 -3.475326960e-04 4.107719536e-04
            -1.210230714e-03 -1.609781473e-03 1.438073140e-03 6.405815871e-03 -9.998310043e-01 3.189022375e-02 -4.303039112e-04 1.647912300e-03
            -4.587101417e-04 3.487326986e-04 -3.336658032e-04 3.620375350e-04 -3.902823828e-04 1.336034227e-03 -9.718922202e-01 9.820980698e-02
5.700000e+08 -9.750387852e-01 1.994528420e-01 1.935606425e-03 6.008728134e-03 4.439350680e-04 5.104555973e-03 -4.492602717e-04 4.150434874e-04
            1.061312632e-03 5.175096512e-03 -9.905103620e-01 1.037697949e-01 9.171105235e-04 5.808466306e-03 -3.577856784e-04 4.254477576e-04
            -1.330461599e-03 1.218748999e-03 1.449002026e-03 6.487830303e-03 -1.000004723e+00 3.522725723e-02 -4.394045907e-04 1.682922094e-03
            -4.696753836e-04 3.640147015e-04 -3.445375886e-04 3.781143922e-04 -4.031191499e-04 1.372253532e-03 -9.712907080e-01 9.974448494e-02
5.800000e+08 -9.742981054e-01 2.055099456e-01 1.962837019e-03 6.084942900e-03 5.043496974e-04 7.862782380e-03 -4.596918026e-04 4.273614508e-04
            1.078927761e-03 5.319298209e-03 -9.904539668e-01 1.055769513e-01 9.108474408e-04 5.949925049e-03 -3.680055691e-04 4.404232519e-04
            -1.383688600e-03 4.005413922e-03 1.458878695e-03 6.572649176e-03 -1.000115636e+00 3.851175640e-02 -4.484928358e-04 1.718508002e-03
            -4.804742867e-04 3.798560901e-04 -3.552785390e-04 3.945259605e-04 -4.157206050e-04 1.408946542e-03 -9.706839411e-01 1.012672090e-01
5.900000e+08 -9.734798396e-01 2.115334232e-01 1.989723672e-03 6.163906758e-03 6.271599378e-04 1.056843033e-02 -4.700887671e-04 4.404003574e-04
            1.098517672e-03 5.463563544e-03 -9.903938702e-01 1.073923546e-01 9.058997631e-04 6.091942910e-03 -3.781842028e-04 4.556950451e-04
            -1.373726505e-03 6.749716178e-03 1.467896072e-03 6.660222672e-03 -1.000168215e+00 4.174382260e-02 -4.575419243e-04 1.754660008e-03
            -4.910873880e-04 3.962451256e-04 -3.658802758e-04 4.112652090e-04 -4.280716945e-04 1.446102275e-03 -9.700722408e-01 1.027780314e-01
6.000000e+08 -9.725868428e-01 2.175224477e-01 2.016455874e-03 6.245549923e-03 8.081016468e-04 1.322170293e-02 -4.804183336e-04 4.541458229e-04
            1.120056320e-03 5.607859445e-03 -9.903296340e-01 1.092157546e-01 9.022630512e-04 6.234490667e-03 -3.883137253e-04 4.712595777e-04
            -1.304217432e-03 9.451330099e-03 1.476236841e-03 6.750495210e-03 -1.000166706e+00 4.492374036e-02 -4.665264867e-04 1.791367392e-03
            -5.014961676e-04 4.131695040e-04 -3.763348695e-04 4.283249690e-04 -4.401582073e-04 1.483709452e-03 -9.694559228e-01 1.042770149e-01
6.100000e+08 -9.716218583e-01 2.234763252e-01 2.043212277e-03 6.329797462e-03 1.043131584e-03 1.582296584e-02 -4.906493454e-04 4.685825659e-04
            1.143518134e-03 5.752154520e-03 -9.902608501e-01 1.110468894e-01 8.999323501e-04 6.377539709e-03 -3.983865923e-04 4.871131377e-04
            -1.178634716e-03 1.211008439e-02 1.484073669e-03 6.843406167e-03 -1.000115135e+00 4.805195708e-02 -4.754224820e-04 1.828618820e-03
            -5.116830357e-04 4.306164270e-04 -3.866348326e-04 4.456979566e-04 -4.519667636e-04 1.521756540e-03 -9.688352969e-01 1.057642315e-01
6.200000e+08 -9.705875203e-01 2.293944825e-01 2.070160960e-03 6.416570006e-03 1.328421571e-03 1.837272876e-02 -5.007522869e-04 4.836945211e-04
            1.168878004e-03 5.896418953e-03 -9.901871397e-01 1.128854865e-01 8.989021972e-04 6.521062039e-03 -4.083955669e-04 5.032518761e-04
            -1.000287146e-03 1.472594640e-02 1.491569448e-03 6.938890538e-03 -1.000017314e+00 5.112906430e-02 -4.842071701e-04 1.866402416e-03
            -5.216313176e-04 4.485726684e-04 -3.967731123e-04 4.633767947e-04 -4.634848001e-04 1.560231793e-03 -9.682106667e-01 1.072397625e-01
6.300000e+08 -9.694863571e-01 2.352764564e-01 2.097459725e-03 6.505784407e-03 1.660352293e-03 2.087162849e-02 -5.106992465e-04 4.994649445e-04
            1.196111272e-03 6.040624412e-03 -9.901081526e-01 1.147312654e-01 8.991666310e-04 6.665030280e-03 -4.183337165e-04 5.196718218e-04
            -7.723234930e-04 1.729900774e-02 1.498877563e-03 7.036879554e-03 -9.998768465e-01 5.415578044e-02 -4.928590815e-04 1.904705835e-03
            -5.313252371e-04 4.670246357e-04 -4.067430821e-04 4.813540343e-04 -4.747005551e-04 1.599123285e-03 -9.675823297e-01 1.087036973e-01
6.400000e+08 -9.683207938e-01 2.411218835e-01 2.125256402e-03 6.597354349e-03 2.035506817e-03 2.332041321e-02 -5.204638776e-04 5.158765112e-04
            1.225193711e-03 6.184743963e-03 -9.900235659e-01 1.165839388e-01 9.007192019e-04 6.809417687e-03 -4.281944098e-04 5.363688956e-04
            -4.977372386e-04 1.982947095e-02 1.506142165e-03 7.137301247e-03 -9.996971337e-01 5.713293500e-02 -5.013579854e-04 1.943516334e-03
            -5.407498988e-04 4.859584293e-04 -4.165385324e-04 4.996221736e-04 -4.856030513e-04 1.638418950e-03 -9.669505771e-01 1.101561334e-01
6.500000e+08 -9.670931553e-01 2.469304909e-01 2.153689164e-03 6.691190910e-03 2.450663922e-03 2.571992821e-02 -5.300213571e-04 5.329114066e-04
            1.256101514e-03 6.328751995e-03 -9.899330835e-01 1.184432145e-01 9.035529838e-04 6.954198148e-03 -4.379713125e-04 5.533389237e-04
            -1.793714600e-04 2.231763741e-02 1.513498467e-03 7.240080978e-03 -9.994813823e-01 6.006145397e-02 -5.096848565e-04 1.982820836e-03
            -5.498912681e-04 5.053598960e-04 -4.261536616e-04 5.181736766e-04 -4.961820777e-04 1.678106615e-03 -9.663156937e-01 1.115971756e-01
6.600000e+08 -9.658056696e-01 2.527020879e-01 2.182886859e-03 6.787203075e-03 2.902791287e-03 2.807110269e-02 -5.393483423e-04 5.505514106e-04
            1.288811282e-03 6.472624149e-03 -9.898364349e-01 1.203087965e-01 9.076605871e-04 7.099346201e-03 -4.476583828e-04 5.705776510e-04
            1.800761929e-04 2.476389612e-02 1.521073036e-03 7.345141913e-03 -9.992326107e-01 6.294234654e-02 -5.178218397e-04 2.022605982e-03
            -5.587361509e-04 5.252146808e-04 -4.355830648e-04 5.370009913e-04 -5.064281706e-04 1.718174030e-03 -9.656779576e-01 1.130269353e-01
6.700000e+08 -9.644604707e-01 2.584365578e-01 2.212969344e-03 6.885298217e-03 3.389038602e-03 3.037493769e-02 -5.484229268e-04 5.687779763e-04
            1.323300007e-03 6.616337257e-03 -9.897333744e-01 1.221803867e-01 9.130341733e-04 7.244837033e-03 -4.572498662e-04 5.880807530e-04
            5.780484638e-04 2.716871350e-02 1.528984101e-03 7.452405472e-03 -9.989536556e-01 6.577669283e-02 -5.257522146e-04 2.062858195e-03
            -5.672721720e-04 5.455082738e-04 -4.448217242e-04 5.560965653e-04 -5.163325932e-04 1.758608900e-03 -9.650376404e-01 1.144455304e-01
6.800000e+08 -9.630596021e-01 2.641338512e-01 2.244047815e-03 6.985382525e-03 3.906730650e-03 3.263249510e-02 -5.572245954e-04 5.875723026e-04
            1.359545065e-03 6.759869285e-03 -9.896236799e-01 1.240576858e-01 9.196654706e-04 7.390646501e-03 -4.667402909e-04 6.058438475e-04
            1.012123438e-03 2.953262402e-02 1.537341855e-03 7.561791733e-03 -9.986471790e-01 6.856563277e-02 -5.334603587e-04 2.103563726e-03
            -5.754877529e-04 5.662260545e-04 -4.538649974e-04 5.754528616e-04 -5.258873148e-04 1.799398913e-03 -9.643950069e-01 1.158530846e-01
6.900000e+08 -9.616050195e-01 2.697939791e-01 2.276225156e-03 7.087361410e-03 4.453360388e-03 3.484488751e-02 -5.657341778e-04 6.069154011e-04
            1.397524202e-03 6.903199281e-03 -9.895071521e-01 1.259403946e-01 9.275457910e-04 7.536751128e-03 -4.761244615e-04 6.238625064e-04
            1.480009505e-03 3.185622158e-02 1.546248771e-03 7.673219806e-03 -9.983156752e-01 7.131035581e-02 -5.409317103e-04 2.144708698e-03
            -5.833720887e-04 5.873533331e-04 -4.627086064e-04 5.950623730e-04 -5.350849896e-04 1.840531765e-03 -9.637503153e-01 1.172497272e-01
7.000000e+08 -9.600985941e-01 2.754170072e-01 2.309596268e-03 7.191139865e-03 5.026582081e-03 3.701326905e-02 -5.739338028e-04 6.267881579e-04
            1.437215527e-03 7.046307328e-03 -9.893836135e-01 1.278282147e-01 9.366660483e-04 7.683128121e-03 -4.853974532e-04 6.421322656e-04
            1.979540352e-03 3.414015173e-02 1.555799902e-03 7.786608175e-03 -9.979614776e-01 7.401209164e-02 -5.481527312e-04 2.186279158e-03
            -5.909151248e-04 6.088753885e-04 -4.713486260e-04 6.149176353e-04 -5.439189341e-04 1.881995186e-03 -9.631038169e-01 1.186355921e-01
7.100000e+08 -9.585421156e-01 2.810030501e-01 2.344248415e-03 7.296622797e-03 5.624204492e-03 3.913882695e-02 -5.818068518e-04 6.471713911e-04
            1.478597504e-03 7.189174501e-03 -9.892529073e-01 1.297208499e-01 9.470167771e-04 7.829755372e-03 -4.945546060e-04 6.606486355e-04
            2.508670026e-03 3.638510441e-02 1.566083195e-03 7.901875005e-03 -9.975867652e-01 7.667210167e-02 -5.551108687e-04 2.228261110e-03
            -5.981075328e-04 6.307775032e-04 -4.797814716e-04 6.350112402e-04 -5.523831050e-04 1.923776961e-03 -9.624557559e-01 1.200108181e-01
7.200000e+08 -9.569372951e-01 2.865522665e-01 2.380261550e-03 7.403715330e-03 6.244184171e-03 4.122277393e-02 -5.893379118e-04 6.680459030e-04
            1.521648943e-03 7.331782825e-03 -9.891148967e-01 1.316180066e-01 9.585881534e-04 7.976611470e-03 -5.035915176e-04 6.794071103e-04
            3.065468058e-03 3.859180747e-02 1.577179791e-03 8.018938432e-03 -9.971935698e-01 7.929167128e-02 -5.617945188e-04 2.270640555e-03
            -6.049406868e-04 6.530449966e-04 -4.880038878e-04 6.553358462e-04 -5.604720764e-04 1.965864957e-03 -9.618063701e-01 1.213755481e-01
7.300000e+08 -9.552857681e-01 2.920648545e-01 2.417708652e-03 7.512323080e-03 6.884618859e-03 4.326634122e-02 -5.965127298e-04 6.893925284e-04
            1.566348997e-03 7.474115241e-03 -9.889694636e-01 1.335193949e-01 9.713700151e-04 8.123675702e-03 -5.125040374e-04 6.984031770e-04
            3.648114689e-03 4.076102063e-02 1.589164328e-03 8.137716816e-03 -9.967837821e-01 8.187210283e-02 -5.681929878e-04 2.313403524e-03
            -6.114066386e-04 6.756632541e-04 -4.960129360e-04 6.758841898e-04 -5.681810167e-04 2.008247136e-03 -9.611558899e-01 1.227299287e-01
7.400000e+08 -9.535890973e-01 2.975410473e-01 2.456656047e-03 7.622352398e-03 7.543741014e-03 4.527077228e-02 -6.033181663e-04 7.111921782e-04
            1.612677155e-03 7.616155571e-03 -9.888165076e-01 1.354247290e-01 9.853518839e-04 8.270928058e-03 -5.212882596e-04 7.176323240e-04
            4.254896190e-03 4.289353005e-02 1.602105234e-03 8.258128974e-03 -9.963591583e-01 8.441470925e-02 -5.742964557e-04 2.356536112e-03
            -6.174980936e-04 6.986177551e-04 -5.038059824e-04 6.966490948e-04 -5.755056653e-04 2.050911576e-03 -9.605045391e-01 1.240741100e-01
7.500000e+08 -9.518487753e-01 3.029811095e-01 2.497163726e-03 7.733710595e-03 8.219911481e-03 4.723731709e-02 -6.097421498e-04 7.334258802e-04
            1.660613241e-03 7.757888485e-03 -9.886559457e-01 1.373337277e-01 1.000522987e-03 8.418349239e-03 -5.299405157e-04 7.370900489e-04
            4.884200287e-03 4.499014337e-02 1.616065021e-03 8.380094391e-03 -9.959213265e-01 8.692080831e-02 -5.800959394e-04 2.400024504e-03
            -6.232083862e-04 7.218940984e-04 -5.113806860e-04 7.176234817e-04 -5.824423097e-04 2.093846492e-03 -9.598525344e-01 1.254082454e-01
7.600000e+08 -9.500662273e-01 3.083853334e-01 2.539285663e-03 7.846306140e-03 8.911613317e-03 4.916722699e-02 -6.157736317e-04 7.560748152e-04
            1.710137410e-03 7.899299470e-03 -9.884877105e-01 1.392461155e-01 1.016872282e-03 8.565920654e-03 -5.384573684e-04 7.567718658e-04
            5.534511713e-03 4.705168518e-02 1.631100565e-03 8.503533410e-03 -9.954717927e-01 8.939171741e-02 -5.855832558e-04 2.443855000e-03
            -6.285314557e-04 7.454780244e-04 -5.187349863e-04 7.388003755e-04 -5.889877624e-04 2.137040243e-03 -9.592000857e-01 1.267324906e-01
7.700000e+08 -9.482428138e-01 3.137540355e-01 2.583070113e-03 7.960048841e-03 9.617445775e-03 5.106175009e-02 -6.214025424e-04 7.791203505e-04
            1.761230146e-03 8.040374806e-03 -9.883117501e-01 1.411616225e-01 1.034388475e-03 8.713624425e-03 -5.468356041e-04 7.766733127e-04
            6.204407872e-03 4.907899289e-02 1.647263388e-03 8.628367401e-03 -9.950119469e-01 9.182874890e-02 -5.907509864e-04 2.488014044e-03
            -6.334618219e-04 7.693554369e-04 -5.258670916e-04 7.601729130e-04 -5.951393373e-04 2.180481355e-03 -9.585473960e-01 1.280470042e-01
7.800000e+08 -9.463798328e-01 3.190875540e-01 2.628559917e-03 8.074849997e-03 1.033611845e-02 5.292212703e-02 -6.266197467e-04 8.025440697e-04
            1.813872262e-03 8.181101534e-03 -9.881280265e-01 1.430799850e-01 1.053060051e-03 8.861443388e-03 -5.550722253e-04 7.967899576e-04
            6.892554631e-03 5.107291304e-02 1.664599927e-03 8.754518910e-03 -9.945430686e-01 9.423320591e-02 -5.955924420e-04 2.532488239e-03
            -6.379945611e-04 7.935124213e-04 -5.327754668e-04 7.817343500e-04 -6.008948276e-04 2.224158527e-03 -9.578946613e-01 1.293519467e-01
7.900000e+08 -9.444785226e-01 3.243862458e-01 2.675792786e-03 8.190622543e-03 1.106644562e-02 5.474958732e-02 -6.314170019e-04 8.263277993e-04
            1.868044902e-03 8.321467436e-03 -9.879365154e-01 1.450009459e-01 1.072875290e-03 9.009361085e-03 -5.631644444e-04 8.171174049e-04
            7.597702243e-03 5.303429793e-02 1.683151799e-03 8.881911796e-03 -9.940663332e-01 9.660637859e-02 -6.001016278e-04 2.577264372e-03
            -6.421252822e-04 8.179352617e-04 -5.394588217e-04 8.034780664e-04 -6.062524823e-04 2.268060647e-03 -9.572420709e-01 1.306474806e-01
8.000000e+08 -9.425400640e-01 3.296504839e-01 2.724801587e-03 8.307281169e-03 1.180734072e-02 5.654534600e-02 -6.357869152e-04 8.504536334e-04
            1.923729539e-03 8.461461003e-03 -9.877372050e-01 1.469242552e-01 1.093822297e-03 9.157361772e-03 -5.711096757e-04 8.376513008e-04
            8.318681394e-03 5.496400253e-02 1.702956055e-03 9.010471348e-03 -9.935828165e-01 9.894954078e-02 -6.042732100e-04 2.622329428e-03
            -6.458501036e-04 8.426104564e-04 -5.459160994e-04 8.253975724e-04 -6.112109845e-04 2.312176800e-03 -9.565898074e-01 1.319337699e-01
8.100000e+08 -9.405655823e-01 3.348806553e-01 2.775614611e-03 8.424742424e-03 1.255781104e-02 5.831060067e-02 -6.397229030e-04 8.749039548e-04
            1.980907975e-03 8.601071419e-03 -9.875300951e-01 1.488496696e-01 1.115889021e-03 9.305430407e-03 -5.789055286e-04 8.583873384e-04
            9.054399386e-03 5.686288174e-02 1.724045429e-03 9.140124387e-03 -9.930935008e-01 1.012639470e-01 -6.081024824e-04 2.667670605e-03
            -6.491656296e-04 8.675247310e-04 -5.521464648e-04 8.474865123e-04 -6.157694289e-04 2.356496279e-03 -9.559380463e-01 1.332109799e-01
8.200000e+08 -9.385561499e-01 3.400771586e-01 2.828255842e-03 8.542924814e-03 1.331695259e-02 6.004652894e-02 -6.432191506e-04 8.996614537e-04
            2.039562348e-03 8.740288534e-03 -9.873151969e-01 1.507769538e-01 1.139063280e-03 9.453552649e-03 -5.865498002e-04 8.793212628e-04
            9.803836441e-03 5.873178796e-02 1.746448583e-03 9.270799357e-03 -9.925992797e-01 1.035508301e-01 -6.115853339e-04 2.713275332e-03
            -6.520689281e-04 8.926650509e-04 -5.581492934e-04 8.697386691e-04 -6.199273003e-04 2.401008590e-03 -9.552869569e-01 1.344792770e-01
8.300000e+08 -9.365127881e-01 3.452404024e-01 2.882745213e-03 8.661748869e-03 1.408394513e-02 6.175428608e-02 -6.462705732e-04 9.247091448e-04
            2.099675129e-03 8.879102843e-03 -9.870925313e-01 1.527058795e-01 1.163332783e-03 9.601714856e-03 -5.940404685e-04 9.004488753e-04
            1.056604215e-02 6.057156878e-02 1.770190331e-03 9.402426402e-03 -9.921009630e-01 1.058113985e-01 -6.147182175e-04 2.759131278e-03
            -6.545575081e-04 9.180186309e-04 -5.639241601e-04 8.921479677e-04 -6.236844520e-04 2.445703463e-03 -9.546367016e-01 1.357388285e-01
8.400000e+08 -9.344364694e-01 3.503708034e-01 2.939098847e-03 8.781137217e-03 1.485804736e-02 6.343500311e-02 -6.488727779e-04 9.500303814e-04
            2.161229127e-03 9.017505465e-03 -9.868621292e-01 1.546362265e-01 1.188685155e-03 9.749904069e-03 -6.013756852e-04 9.217660376e-04
            1.134013203e-02 6.238306508e-02 1.795291874e-03 9.534937430e-03 -9.915992814e-01 1.080468347e-01 -6.174981195e-04 2.805226361e-03
            -6.566292977e-04 9.435729450e-04 -5.694708285e-04 9.147084778e-04 -6.270410854e-04 2.490570857e-03 -9.539874362e-01 1.369898023e-01
8.500000e+08 -9.323281190e-01 3.554687844e-01 2.997329299e-03 8.901014629e-03 1.563859240e-02 6.508978500e-02 -6.510220269e-04 9.756088676e-04
            2.224207491e-03 9.155488122e-03 -9.866240299e-01 1.565677822e-01 1.215107955e-03 9.898108016e-03 -6.085537685e-04 9.432686751e-04
            1.212528422e-02 6.416710918e-02 1.821771008e-03 9.668266170e-03 -9.910948916e-01 1.102582934e-01 -6.199225296e-04 2.851548761e-03
            -6.582826228e-04 9.693157334e-04 -5.747892403e-04 9.374144166e-04 -6.299977292e-04 2.535600963e-03 -9.533393102e-01 1.382323666e-01
8.600000e+08 -9.301886173e-01 3.605347735e-01 3.057445787e-03 9.021308067e-03 1.642498327e-02 6.671970926e-02 -6.527152012e-04 1.001428669e-03
            2.288593714e-03 9.293043115e-03 -9.863782810e-01 1.585003420e-01 1.242588703e-03 1.004631509e-02 -6.155731967e-04 9.649527806e-04
            1.292073631e-02 6.592452331e-02 1.849642337e-03 9.802348214e-03 -9.905883799e-01 1.124469000e-01 -6.219894122e-04 2.898086926e-03
            -6.595161864e-04 9.952350096e-04 -5.798795049e-04 9.602601505e-04 -6.325552195e-04 2.580784210e-03 -9.526924666e-01 1.394666899e-01
8.700000e+08 -9.280188011e-01 3.655692022e-01 3.119454407e-03 9.141946710e-03 1.721668872e-02 6.832582467e-02 -6.539497664e-04 1.027474222e-03
            2.354371633e-03 9.430163311e-03 -9.861249377e-01 1.604337092e-01 1.271114898e-03 1.019451436e-02 -6.224326006e-04 9.868144173e-04
            1.372578229e-02 6.765611816e-02 1.878917472e-03 9.937121051e-03 -9.900802671e-01 1.146137494e-01 -6.236971785e-04 2.944829578e-03
            -6.603290480e-04 1.021319065e-03 -5.847418894e-04 9.832401965e-04 -6.347146808e-04 2.626111270e-03 -9.520470423e-01 1.406929408e-01
8.800000e+08 -9.258194656e-01 3.705725043e-01 3.183358348e-03 9.262861981e-03 1.801323909e-02 6.990915028e-02 -6.547237385e-04 1.053730339e-03
            2.421525437e-03 9.566842116e-03 -9.858640618e-01 1.623676952e-01 1.300674039e-03 1.034269553e-02 -6.291307577e-04 1.008849721e-03
            1.453976958e-02 6.936269173e-02 1.909605226e-03 1.007252410e-02 -9.895710123e-01 1.167599050e-01 -6.250446593e-04 2.991765720e-03
            -6.607206039e-04 1.047556473e-03 -5.893768089e-04 1.006349224e-03 -6.364775068e-04 2.671573058e-03 -9.514031676e-01 1.419112875e-01
8.900000e+08 -9.235913664e-01 3.755451150e-01 3.249158093e-03 9.383987555e-03 1.881422246e-02 7.147067451e-02 -6.550356518e-04 1.080182216e-03
            2.490039666e-03 9.703073461e-03 -9.855957215e-01 1.643021191e-01 1.331253646e-03 1.049084896e-02 -6.356665849e-04 1.031054904e-03
            1.536209623e-02 7.104502816e-02 1.941711798e-03 1.020849872e-02 -9.890610169e-01 1.188863981e-01 -6.260310793e-04 3.038884637e-03
            -6.606905680e-04 1.073936094e-03 -5.937848168e-04 1.029582053e-03 -6.378453422e-04 2.717160735e-03 -9.507609671e-01 1.431218981e-01
9.000000e+08 -9.213352203e-01 3.804874693e-01 3.316851615e-03 9.505259375e-03 1.961928088e-02 7.301135456e-02 -6.548845273e-04 1.106815434e-03
            2.559899214e-03 9.838851779e-03 -9.853199906e-01 1.662368082e-01 1.362841278e-03 1.063896564e-02 -6.420391324e-04 1.053426253e-03
            1.619220824e-02 7.270389685e-02 1.975240948e-03 1.034498823e-02 -9.885506281e-01 1.209942269e-01 -6.266560313e-04 3.086175903e-03
            -6.602389530e-04 1.100447074e-03 -5.979665959e-04 1.052933659e-03 -6.388200648e-04 2.762865710e-03 -9.501205591e-01 1.443249399e-01
9.100000e+08 -9.190517077e-01 3.854000017e-01 3.386434563e-03 9.626615639e-03 2.042810679e-02 7.453211585e-02 -6.542698426e-04 1.133615967e-03
            2.631089337e-03 9.974171988e-03 -9.850369481e-01 1.681715977e-01 1.395424554e-03 1.078703716e-02 -6.482475769e-04 1.075960138e-03
            1.702959693e-02 7.434005165e-02 2.010194170e-03 1.048193790e-02 -9.880401428e-01 1.230843564e-01 -6.269194526e-04 3.133629382e-03
            -6.593660522e-04 1.127078850e-03 -6.019229492e-04 1.076399169e-03 -6.394037688e-04 2.808679640e-03 -9.494820562e-01 1.455205800e-01
9.200000e+08 -9.167414736e-01 3.902831447e-01 3.457900436e-03 9.747996803e-03 2.124043962e-02 7.603385172e-02 -6.531915022e-04 1.160570177e-03
            2.703595650e-03 1.010902947e-02 -9.847466775e-01 1.701063303e-01 1.428991170e-03 1.093505573e-02 -6.542912161e-04 1.098653007e-03
            1.787379646e-02 7.595423015e-02 2.046570854e-03 1.061929498e-02 -9.875298107e-01 1.251577178e-01 -6.268216011e-04 3.181235228e-03
            -6.580724222e-04 1.153821147e-03 -6.056547914e-04 1.099973861e-03 -6.395987478e-04 2.854594430e-03 -9.488455650e-01 1.467089842e-01
9.300000e+08 -9.144051291e-01 3.951373286e-01 3.531240757e-03 9.869345563e-03 2.205606252e-02 7.751742316e-02 -6.516498102e-04 1.187664817e-03
            2.777404131e-03 1.024342006e-02 -9.844492665e-01 1.720408569e-01 1.463528915e-03 1.108301416e-02 -6.601694619e-04 1.121501391e-03
            1.872438149e-02 7.754715312e-02 2.084368439e-03 1.075700867e-02 -9.870198378e-01 1.272152085e-01 -6.263630334e-04 3.228983886e-03
            -6.563588658e-04 1.180663979e-03 -6.091631407e-04 1.123653167e-03 -6.394074790e-04 2.900602232e-03 -9.482111866e-01 1.478903178e-01
9.400000e+08 -9.120432528e-01 3.999629805e-01 3.606445234e-03 9.990606836e-03 2.287479923e-02 7.898365872e-02 -6.496454427e-04 1.214887032e-03
            2.852501128e-03 1.037734002e-02 -9.841448064e-01 1.739750358e-01 1.499025689e-03 1.123090581e-02 -6.658818349e-04 1.144501905e-03
            1.958096485e-02 7.911952400e-02 2.123582566e-03 1.089503010e-02 -9.865103895e-01 1.292576922e-01 -6.255445825e-04 3.276866093e-03
            -6.542264155e-04 1.207597651e-03 -6.124491104e-04 1.147432668e-03 -6.388326078e-04 2.946695445e-03 -9.475790162e-01 1.490647448e-01
9.500000e+08 -9.096563924e-01 4.047605234e-01 3.683501913e-03 1.011172774e-02 2.369651118e-02 8.043335458e-02 -6.471794220e-04 1.242224357e-03
            2.928873355e-03 1.051078602e-02 -9.838333917e-01 1.759087329e-01 1.535469518e-03 1.137872462e-02 -6.714279585e-04 1.167651246e-03
            2.044319543e-02 8.067202856e-02 2.164207212e-03 1.103331233e-02 -9.860015933e-01 1.312859985e-01 -6.243673381e-04 3.324872878e-03
            -6.516763182e-04 1.234612751e-03 -6.155139016e-04 1.171308097e-03 -6.378769330e-04 2.992866714e-03 -9.469491440e-01 1.502324282e-01
9.600000e+08 -9.072450653e-01 4.095303760e-01 3.762397323e-03 1.023265756e-02 2.452109458e-02 8.186727456e-02 -6.442530920e-04 1.269664712e-03
            3.006507899e-03 1.064375513e-02 -9.835151196e-01 1.778418215e-01 1.572848570e-03 1.152646507e-02 -6.768075529e-04 1.190946197e-03
            2.131075605e-02 8.220533453e-02 2.206234831e-03 1.117181035e-02 -9.854935418e-01 1.333009235e-01 -6.228326258e-04 3.372995558e-03
            -6.487100194e-04 1.261700153e-03 -6.183587958e-04 1.195275332e-03 -6.365433926e-04 3.039108925e-03 -9.463216545e-01 1.513935297e-01
9.700000e+08 -9.048097606e-01 4.142729520e-01 3.843116620e-03 1.035334773e-02 2.534847781e-02 8.328615043e-02 -6.408680942e-04 1.297196402e-03
            3.085392218e-03 1.077624478e-02 -9.831900896e-01 1.797741824e-01 1.611151168e-03 1.167412218e-02 -6.820204305e-04 1.214383628e-03
            2.218336150e-02 8.372009141e-02 2.249656481e-03 1.131048102e-02 -9.849862955e-01 1.353032299e-01 -6.209419891e-04 3.421225735e-03
            -6.453291489e-04 1.288851015e-03 -6.209851472e-04 1.219330401e-03 -6.348350500e-04 3.085415207e-03 -9.456966271e-01 1.525482095e-01
9.800000e+08 -9.023509399e-01 4.189886597e-01 3.925643717e-03 1.047375178e-02 2.617861883e-02 8.469068209e-02 -6.370263452e-04 1.324808109e-03
            3.165514146e-03 1.090825278e-02 -9.828584033e-01 1.817057031e-01 1.650365804e-03 1.182169148e-02 -6.870664893e-04 1.237960492e-03
            2.306075663e-02 8.521693031e-02 2.294461941e-03 1.144928306e-02 -9.844798851e-01 1.372936472e-01 -6.186971704e-04 3.469555298e-03
            -6.415355068e-04 1.316056769e-03 -6.233943765e-04 1.243469474e-03 -6.327550813e-04 3.131778925e-03 -9.450741359e-01 1.536966265e-01
9.900000e+08 -8.998690381e-01 4.236779013e-01 4.009961406e-03 1.059382531e-02 2.701150280e-02 8.608153802e-02 -6.327300143e-04 1.352488892e-03
            3.246861893e-03 1.103977728e-02 -9.825201638e-01 1.836362787e-01 1.690481153e-03 1.196916900e-02 -6.919457091e-04 1.261673828e-03
            2.394271459e-02 8.669646382e-02 2.340639834e-03 1.158817703e-02 -9.839743142e-01 1.392728724e-01 -6.161000946e-04 3.517976417e-03
            -6.373310500e-04 1.343309126e-03 -6.255879640e-04 1.267688865e-03 -6.303067627e-04 3.178193681e-03 -9.444542504e-01 1.548389380e-01
1.000000e+09 -8.973644652e-01 4.283410729e-01 4.096051484e-03 1.071352596e-02 2.784713975e-02 8.745935562e-02 -6.279815035e-04 1.380228180e-03
            3.329424044e-03 1.117081674e-02 -9.821754755e-01 1.855658107e-01 1.731486082e-03 1.211655126e-02 -6.966581453e-04 1.285520763e-03
            2.482903504e-02 8.815928598e-02 2.388177731e-03 1.172712527e-02 -9.834695612e-01 1.412415702e-01 -6.131528519e-04 3.566481540e-03
            -6.327178791e-04 1.370600066e-03 -6.275674434e-04 1.291985031e-03 -6.274934584e-04 3.224653308e-03 -9.438370348e-01 1.559752997e-01
1.010000e+09 -8.948376070e-01 4.329785637e-01 4.183894860e-03 1.083281333e-02 2.868556243e-02 8.882474173e-02 -6.227834271e-04 1.408015765e-03
            3.413189565e-03 1.130136994e-02 -9.818244438e-01 1.874942074e-01 1.773369663e-03 1.226383524e-02 -7.012039246e-04 1.309498507e-03
            2.571954257e-02 8.960597229e-02 2.437062257e-03 1.186609191e-02 -9.829655819e-01 1.432003737e-01 -6.098576825e-04 3.615063386e-03
            -6.276982262e-04 1.397921834e-03 -6.293343956e-04 1.316354563e-03 -6.243186095e-04 3.271151864e-03 -9.432225489e-01 1.571058657e-01
1.020000e+09 -8.922888257e-01 4.375907561e-01 4.273471663e-03 1.095164899e-02 2.952682425e-02 9.017827314e-02 -6.171385931e-04 1.435841798e-03
            3.498147796e-03 1.143143595e-02 -9.814671745e-01 1.894213837e-01 1.816121183e-03 1.241101838e-02 -7.055832404e-04 1.333604356e-03
            2.661408512e-02 9.103707976e-02 2.487279189e-03 1.200504279e-02 -9.824623113e-01 1.451498849e-01 -6.062169618e-04 3.663714948e-03
            -6.222744433e-04 1.425266939e-03 -6.308904436e-04 1.340794193e-03 -6.207857231e-04 3.317683636e-03 -9.426108476e-01 1.582307881e-01
1.030000e+09 -8.897184618e-01 4.421780251e-01 4.364761344e-03 1.106999638e-02 3.037099735e-02 9.152049717e-02 -6.110499851e-04 1.463696779e-03
            3.584288459e-03 1.156101412e-02 -9.811037740e-01 1.913472609e-01 1.859730153e-03 1.255809856e-02 -7.097963479e-04 1.357835691e-03
            2.751253248e-02 9.245314701e-02 2.538813550e-03 1.214394545e-02 -9.819596656e-01 1.470906754e-01 -6.022331858e-04 3.712429481e-03
            -6.164489904e-04 1.452628145e-03 -6.322372463e-04 1.365300783e-03 -6.168983622e-04 3.364243128e-03 -9.420019814e-01 1.593502175e-01
1.040000e+09 -8.871268340e-01 4.467407382e-01 4.457742767e-03 1.118782079e-02 3.121817076e-02 9.285193227e-02 -6.045207454e-04 1.491571555e-03
            3.671601652e-03 1.169010405e-02 -9.807343487e-01 1.932717663e-01 1.904186319e-03 1.270507407e-02 -7.138435599e-04 1.382189979e-03
            2.841477489e-02 9.385469438e-02 2.591649697e-03 1.228276909e-02 -9.814575440e-01 1.490232869e-01 -5.979089579e-04 3.761200501e-03
            -6.102244254e-04 1.479998469e-03 -6.333764936e-04 1.389871328e-03 -6.126601357e-04 3.410825060e-03 -9.413959966e-01 1.604643024e-01
1.050000e+09 -8.845142409e-01 4.512792551e-01 4.552394303e-03 1.130508932e-02 3.206844866e-02 9.417306865e-02 -5.975541585e-04 1.519457308e-03
            3.760077851e-03 1.181870559e-02 -9.803590047e-01 1.951948333e-01 1.949479667e-03 1.285194362e-02 -7.177252425e-04 1.406664768e-03
            2.932072169e-02 9.524222412e-02 2.645771401e-03 1.242148452e-02 -9.809558304e-01 1.509482320e-01 -5.932469763e-04 3.810021781e-03
            -6.036033937e-04 1.507371172e-03 -6.343099016e-04 1.414502951e-03 -6.080746894e-04 3.457424364e-03 -9.407929349e-01 1.615731895e-01
1.060000e+09 -8.818809614e-01 4.557939278e-01 4.648693908e-03 1.142177081e-02 3.292194876e-02 9.548436899e-02 -5.901536359e-04 1.547345552e-03
            3.849707909e-03 1.194681884e-02 -9.799778479e-01 1.971164010e-01 1.995600434e-03 1.299870629e-02 -7.214418109e-04 1.431257690e-03
            3.023030006e-02 9.661622056e-02 2.701161930e-03 1.256006412e-02 -9.804543953e-01 1.528659953e-01 -5.882500214e-04 3.858887341e-03
            -5.965886179e-04 1.534739756e-03 -6.350392076e-04 1.439192901e-03 -6.031456971e-04 3.504036178e-03 -9.401928341e-01 1.626770235e-01
1.070000e+09 -8.792272558e-01 4.602850999e-01 4.746619208e-03 1.153783578e-02 3.377880077e-02 9.678626908e-02 -5.823227012e-04 1.575228121e-03
            3.940483055e-03 1.207444408e-02 -9.795909835e-01 1.990364143e-01 2.042539112e-03 1.314536154e-02 -7.249937257e-04 1.455966460e-03
            3.114345380e-02 9.797715035e-02 2.757804119e-03 1.269848179e-02 -9.799530971e-01 1.547770332e-01 -5.829209452e-04 3.907791448e-03
            -5.891828895e-04 1.562097956e-03 -6.355661660e-04 1.463938551e-03 -5.978768526e-04 3.550655842e-03 -9.395957280e-01 1.637759472e-01
1.080000e+09 -8.765533663e-01 4.647531068e-01 4.846147567e-03 1.165325643e-02 3.463914497e-02 9.807917856e-02 -5.740649771e-04 1.603097162e-03
            4.032394894e-03 1.220158182e-02 -9.791985159e-01 2.009548235e-01 2.090286455e-03 1.329190920e-02 -7.283814889e-04 1.480788873e-03
            3.206014218e-02 9.932546270e-02 2.815680440e-03 1.283671295e-02 -9.794517834e-01 1.566817757e-01 -5.772626597e-04 3.956728608e-03
            -5.813890591e-04 1.589439738e-03 -6.358925437e-04 1.488737391e-03 -5.922718619e-04 3.597278894e-03 -9.390016463e-01 1.648701012e-01
1.090000e+09 -8.738595182e-01 4.691982755e-01 4.947256161e-03 1.176800653e-02 3.550313081e-02 9.936348165e-02 -5.653841712e-04 1.630945131e-03
            4.125435402e-03 1.232823275e-02 -9.788005483e-01 2.028715841e-01 2.138833486e-03 1.343834943e-02 -7.316056403e-04 1.505722805e-03
            3.298033885e-02 1.006615896e-01 2.874773069e-03 1.297473443e-02 -9.789502927e-01 1.585806264e-01 -5.712781272e-04 4.005693557e-03
            -5.732100288e-04 1.616759287e-03 -6.360201162e-04 1.513587033e-03 -5.863344356e-04 3.643901063e-03 -9.384106152e-01 1.659596243e-01
1.100000e+09 -8.711459201e-01 4.736209246e-01 5.049922038e-03 1.188206139e-02 3.637091571e-02 1.006395379e-01 -5.562840646e-04 1.658764778e-03
            4.219596930e-03 1.245439772e-02 -9.783971830e-01 2.047866567e-01 2.188171498e-03 1.358468271e-02 -7.346667542e-04 1.530766212e-03
            3.390403078e-02 1.019859462e-01 2.935063943e-03 1.311252449e-02 -9.784484555e-01 1.604739639e-01 -5.649703508e-04 4.054681262e-03
            -5.646487439e-04 1.644051006e-03 -6.359506640e-04 1.538485199e-03 -5.800682824e-04 3.690518267e-03 -9.378226571e-01 1.670446529e-01
1.110000e+09 -8.684127651e-01 4.780213640e-01 5.154122184e-03 1.199539782e-02 3.724266382e-02 1.019076828e-01 -5.467685000e-04 1.686549145e-03
            4.314872194e-03 1.258007775e-02 -9.779885208e-01 2.067000068e-01 2.238292066e-03 1.373090983e-02 -7.375654354e-04 1.555917127e-03
            3.483121735e-02 1.032989311e-01 2.996534824e-03 1.325006275e-02 -9.779460954e-01 1.623621422e-01 -5.583423650e-04 4.103686910e-03
            -5.557081857e-04 1.671309507e-03 -6.356859688e-04 1.563429725e-03 -5.734771023e-04 3.737126603e-03 -9.372377908e-01 1.681253216e-01
1.120000e+09 -8.656602311e-01 4.823998951e-01 5.259833575e-03 1.210799407e-02 3.811854492e-02 1.031682288e-01 -5.368413707e-04 1.714291553e-03
            4.411254282e-03 1.270527402e-02 -9.775746611e-01 2.086116047e-01 2.289187042e-03 1.387703191e-02 -7.403023167e-04 1.581173661e-03
            3.576190935e-02 1.046009263e-01 3.059167344e-03 1.338733012e-02 -9.774430305e-01 1.642454914e-01 -5.513972275e-04 4.152705904e-03
            -5.463913642e-04 1.698529607e-03 -6.352278104e-04 1.588418555e-03 -5.665645812e-04 3.783722348e-03 -9.366560317e-01 1.692017628e-01
1.130000e+09 -8.628884818e-01 4.867568103e-01 5.367033229e-03 1.221982978e-02 3.899873340e-02 1.044214659e-01 -5.265066101e-04 1.741985596e-03
            4.508736643e-03 1.282998781e-02 -9.771557016e-01 2.105214251e-01 2.340848563e-03 1.402305030e-02 -7.428780554e-04 1.606534000e-03
            3.669612815e-02 1.058922982e-01 3.122943061e-03 1.352430882e-02 -9.769390741e-01 1.661243190e-01 -5.441380114e-04 4.201733855e-03
            -5.367013117e-04 1.725706317e-03 -6.345779629e-04 1.613449740e-03 -5.593343845e-04 3.830301950e-03 -9.360773921e-01 1.702741068e-01
1.140000e+09 -8.600976671e-01 4.910923934e-01 5.475698258e-03 1.233088592e-02 3.988340725e-02 1.056676623e-01 -5.157681827e-04 1.769625132e-03
            4.607313090e-03 1.295422055e-02 -9.767317382e-01 2.124294473e-01 2.393269054e-03 1.416896665e-02 -7.452933306e-04 1.631996405e-03
            3.763390485e-02 1.071733974e-01 3.187843504e-03 1.366098227e-02 -9.764340359e-01 1.679989104e-01 -5.365677975e-04 4.250766579e-03
            -5.266410762e-04 1.752834842e-03 -6.337381927e-04 1.638521431e-03 -5.517901523e-04 3.876862024e-03 -9.355018808e-01 1.713424815e-01
1.150000e+09 -8.572879238e-01 4.954069196e-01 5.585805911e-03 1.244114474e-02 4.077274723e-02 1.069070654e-01 -5.046300744e-04 1.797204274e-03
            4.706977795e-03 1.307797376e-02 -9.763028650e-01 2.143356545e-01 2.446441230e-03 1.431478286e-02 -7.475488397e-04 1.657559212e-03
            3.857527950e-02 1.084445590e-01 3.253850216e-03 1.379733510e-02 -9.759277229e-01 1.698695295e-01 -5.286896676e-04 4.299800090e-03
            -5.162137160e-04 1.779910570e-03 -6.327102547e-04 1.663631883e-03 -5.439354946e-04 3.923399348e-03 -9.349295037e-01 1.724070130e-01
1.160000e+09 -8.544593761e-01 4.997006548e-01 5.697333616e-03 1.255058974e-02 4.166693595e-02 1.081399023e-01 -4.930962841e-04 1.824717384e-03
            4.807725285e-03 1.320124907e-02 -9.758691742e-01 2.162400342e-01 2.500358095e-03 1.446050106e-02 -7.496452967e-04 1.683220826e-03
            3.952030035e-02 1.097061035e-01 3.320944796e-03 1.393335309e-02 -9.754199400e-01 1.717364199e-01 -5.205066977e-04 4.348830590e-03
            -5.054222937e-04 1.806929068e-03 -6.314958902e-04 1.688779444e-03 -5.357739865e-04 3.969910854e-03 -9.343602637e-01 1.734678252e-01
1.170000e+09 -8.516121362e-01 5.039738566e-01 5.810259019e-03 1.265920561e-02 4.256615716e-02 1.093663809e-01 -4.811708162e-04 1.852159060e-03
            4.909550443e-03 1.332404819e-02 -9.754307558e-01 2.181425775e-01 2.555012949e-03 1.460612362e-02 -7.515834286e-04 1.708979726e-03
            4.046902319e-02 1.109583364e-01 3.389108933e-03 1.406902310e-02 -9.749104913e-01 1.735998054e-01 -5.120219526e-04 4.397854470e-03
            -4.942698715e-04 1.833886073e-03 -6.300968245e-04 1.713962558e-03 -5.273091643e-04 4.016393629e-03 -9.337941607e-01 1.745250397e-01
1.180000e+09 -8.487463049e-01 5.082267734e-01 5.924560019e-03 1.276697816e-02 4.347059496e-02 1.105866901e-01 -4.688576727e-04 1.879524131e-03
            5.012448499e-03 1.344637290e-02 -9.749876978e-01 2.200432792e-01 2.610399383e-03 1.475165309e-02 -7.533639735e-04 1.734834458e-03
            4.142151062e-02 1.122015492e-01 3.458324445e-03 1.420433307e-02 -9.743991802e-01 1.754598909e-01 -5.032384795e-04 4.446868299e-03
            -4.827595057e-04 1.860777491e-03 -6.285147641e-04 1.739179761e-03 -5.185445214e-04 4.062844905e-03 -9.332311921e-01 1.755787760e-01
1.190000e+09 -8.458619723e-01 5.124596449e-01 6.040214800e-03 1.287389431e-02 4.438043321e-02 1.118010011e-01 -4.561608466e-04 1.906807650e-03
            5.116415028e-03 1.356822504e-02 -9.745400859e-01 2.219421379e-01 2.666511282e-03 1.489709225e-02 -7.549876782e-04 1.760783639e-03
            4.237783150e-02 1.134360192e-01 3.528573310e-03 1.433927197e-02 -9.738858104e-01 1.773168633e-01 -4.941593034e-04 4.495868819e-03
            -4.708942430e-04 1.887599385e-03 -6.267513952e-04 1.764429676e-03 -5.094835047e-04 4.109262056e-03 -9.326713524e-01 1.766291516e-01
1.200000e+09 -8.429592178e-01 5.166727022e-01 6.157201862e-03 1.297994201e-02 4.529585487e-02 1.130094678e-01 -4.430843154e-04 1.934004881e-03
            5.221445951e-03 1.368960651e-02 -9.740880034e-01 2.238391552e-01 2.723342829e-03 1.504244406e-02 -7.564552957e-04 1.786825951e-03
            4.333806032e-02 1.146620104e-01 3.599837691e-03 1.447382974e-02 -9.733701867e-01 1.791708920e-01 -4.847874220e-04 4.544852941e-03
            -4.586771156e-04 1.914347972e-03 -6.248083811e-04 1.789711014e-03 -5.001295119e-04 4.155642592e-03 -9.321146336e-01 1.776762818e-01
1.210000e+09 -8.400381111e-01 5.208661673e-01 6.275500048e-03 1.308511020e-02 4.621704143e-02 1.142122274e-01 -4.296320352e-04 1.961111297e-03
            5.327537524e-03 1.381051925e-02 -9.736315316e-01 2.257343362e-01 2.780888497e-03 1.518771164e-02 -7.577675831e-04 1.812960142e-03
            4.430227667e-02 1.158797733e-01 3.672099972e-03 1.460799727e-02 -9.728521150e-01 1.810221296e-01 -4.751258014e-04 4.593817734e-03
            -4.461111376e-04 1.941019618e-03 -6.226873607e-04 1.815022565e-03 -4.904858879e-04 4.201984157e-03 -9.315610254e-01 1.787202796e-01
1.220000e+09 -8.370987122e-01 5.250402538e-01 6.395088569e-03 1.318938879e-02 4.714417242e-02 1.154094015e-01 -4.158079349e-04 1.988122567e-03
            5.434686338e-03 1.393096522e-02 -9.731707490e-01 2.276276886e-01 2.839143056e-03 1.533289829e-02 -7.589252996e-04 1.839185023e-03
            4.527056469e-02 1.170895457e-01 3.745342776e-03 1.474176636e-02 -9.723314036e-01 1.828707131e-01 -4.651773721e-04 4.642760428e-03
            -4.331993013e-04 1.967610829e-03 -6.203899466e-04 1.840363204e-03 -4.805559223e-04 4.248284520e-03 -9.310105148e-01 1.797612560e-01
1.230000e+09 -8.341410724e-01 5.291951662e-01 6.515947025e-03 1.329276859e-02 4.807742489e-02 1.166010965e-01 -4.016159117e-04 2.015034550e-03
            5.542889317e-03 1.405094641e-02 -9.727057319e-01 2.295192236e-01 2.898101569e-03 1.547800746e-02 -7.599292046e-04 1.865499471e-03
            4.624301263e-02 1.182915528e-01 3.819548990e-03 1.487512968e-02 -9.718078630e-01 1.847167640e-01 -4.549450248e-04 4.691678400e-03
            -4.199445738e-04 1.994118246e-03 -6.179177236e-04 1.865731880e-03 -4.703428472e-04 4.294541575e-03 -9.304630870e-01 1.807993201e-01
1.240000e+09 -8.311652343e-01 5.333311007e-01 6.638055427e-03 1.339524127e-02 4.901697304e-02 1.177874042e-01 -3.870598256e-04 2.041843287e-03
            5.652143707e-03 1.417046483e-02 -9.722365541e-01 2.314089545e-01 2.957759389e-03 1.562304272e-02 -7.607800557e-04 1.891902420e-03
            4.721971233e-02 1.194860076e-01 3.894701788e-03 1.500808070e-02 -9.712813067e-01 1.865603898e-01 -4.444316075e-04 4.740569171e-03
            -4.063498940e-04 2.020538642e-03 -6.152722470e-04 1.891127619e-03 -4.598498345e-04 4.340753331e-03 -9.299187246e-01 1.818345787e-01
1.250000e+09 -8.281712323e-01 5.374482448e-01 6.761394213e-03 1.349679932e-02 4.996298776e-02 1.189684028e-01 -3.721434960e-04 2.068544996e-03
            5.762447080e-03 1.428952248e-02 -9.717632868e-01 2.332968977e-01 3.018112161e-03 1.576800778e-02 -7.614786071e-04 1.918392869e-03
            4.820075885e-02 1.206731112e-01 3.970784648e-03 1.514061373e-02 -9.707515513e-01 1.884016836e-01 -4.336399221e-04 4.789430404e-03
            -3.924181696e-04 2.046868914e-03 -6.124550415e-04 1.916549519e-03 -4.490799948e-04 4.386917912e-03 -9.293774082e-01 1.828671364e-01
1.260000e+09 -8.251590932e-01 5.415467773e-01 6.885944267e-03 1.359743602e-02 5.091563630e-02 1.201441570e-01 -3.568706969e-04 2.095136061e-03
            5.873797322e-03 1.440812136e-02 -9.712859987e-01 2.351830717e-01 3.079155821e-03 1.591290648e-02 -7.620256075e-04 1.944969872e-03
            4.918625000e-02 1.218530531e-01 4.047781368e-03 1.527272381e-02 -9.702184173e-01 1.902407258e-01 -4.225727215e-04 4.838259894e-03
            -3.781522746e-04 2.073106076e-03 -6.094675999e-04 1.941996747e-03 -4.380363745e-04 4.433033550e-03 -9.288391167e-01 1.838970960e-01
1.270000e+09 -8.221288362e-01 5.456268686e-01 7.011686932e-03 1.369714537e-02 5.187508195e-02 1.213147193e-01 -3.412451538e-04 2.121613025e-03
            5.986192635e-03 1.452626345e-02 -9.708047560e-01 2.370674976e-01 3.140886590e-03 1.605774273e-02 -7.624217993e-04 1.971632542e-03
            5.017628602e-02 1.230260119e-01 4.125676087e-03 1.540440671e-02 -9.696817292e-01 1.920775844e-01 -4.112327072e-04 4.887055564e-03
            -3.635550467e-04 2.099247256e-03 -6.063113816e-04 1.967468539e-03 -4.267219553e-04 4.479098582e-03 -9.283038268e-01 1.849245581e-01
1.280000e+09 -8.190804739e-01 5.496886807e-01 7.138604022e-03 1.379592208e-02 5.284148374e-02 1.224801301e-01 -3.252705403e-04 2.147972586e-03
            6.099631528e-03 1.464395072e-02 -9.703196223e-01 2.389501984e-01 3.203300976e-03 1.620252058e-02 -7.626679160e-04 1.998380049e-03
            5.117096919e-02 1.241921550e-01 4.204453294e-03 1.553565889e-02 -9.691413156e-01 1.939123152e-01 -3.996225269e-04 4.935815460e-03
            -3.486292853e-04 2.125289692e-03 -6.029878119e-04 1.992964193e-03 -4.151396522e-04 4.525111444e-03 -9.277715134e-01 1.859496214e-01
1.290000e+09 -8.160140120e-01 5.537323672e-01 7.266677834e-03 1.389376152e-02 5.381499620e-02 1.236404185e-01 -3.089504751e-04 2.174211586e-03
            6.214112815e-03 1.476118508e-02 -9.698306586e-01 2.408311994e-01 3.266395769e-03 1.634724415e-02 -7.627646818e-04 2.025211615e-03
            5.217040349e-02 1.253516395e-01 4.284097841e-03 1.566647747e-02 -9.685970098e-01 1.957449632e-01 -3.877447723e-04 4.984537747e-03
            -3.333777494e-04 2.151230721e-03 -5.994982811e-04 2.018483074e-03 -4.032923129e-04 4.571070670e-03 -9.272421499e-01 1.869723825e-01
1.300000e+09 -8.129294500e-01 5.577580732e-01 7.395891157e-03 1.399065968e-02 5.479576909e-02 1.247956028e-01 -2.922885194e-04 2.200327007e-03
            6.329635608e-03 1.487796844e-02 -9.693379233e-01 2.427105277e-01 3.330168040e-03 1.649191762e-02 -7.627128094e-04 2.052126519e-03
            5.317469431e-02 1.265046121e-01 4.364594958e-03 1.579686020e-02 -9.680486498e-01 1.975755627e-01 -3.756019775e-04 5.033220704e-03
            -3.178031558e-04 2.177067780e-03 -5.958441433e-04 2.044024603e-03 -3.911827162e-04 4.616974881e-03 -9.267157076e-01 1.879929361e-01
1.310000e+09 -8.098267815e-01 5.617659359e-01 7.526227279e-03 1.408661314e-02 5.578394723e-02 1.259456913e-01 -2.752881741e-04 2.226315964e-03
            6.446199317e-03 1.499430263e-02 -9.688414722e-01 2.445882121e-01 3.394615140e-03 1.663654526e-02 -7.625129994e-04 2.079124091e-03
            5.418394812e-02 1.276512097e-01 4.445930259e-03 1.592680542e-02 -9.674960787e-01 1.994041379e-01 -3.631966170e-04 5.081862714e-03
            -3.019081776e-04 2.202798399e-03 -5.920267155e-04 2.069588261e-03 -3.788135716e-04 4.662822791e-03 -9.261921567e-01 1.890113747e-01
1.320000e+09 -8.067059945e-01 5.657560840e-01 7.657669997e-03 1.418161903e-02 5.677967029e-02 1.270906824e-01 -2.579528783e-04 2.252175696e-03
            6.563803638e-03 1.511018945e-02 -9.683413586e-01 2.464642833e-01 3.459734694e-03 1.678113140e-02 -7.621659385e-04 2.106203710e-03
            5.519827225e-02 1.287915594e-01 4.528089754e-03 1.605631204e-02 -9.669391448e-01 2.012307038e-01 -3.505311048e-04 5.130462268e-03
            -2.856954427e-04 2.228420194e-03 -5.880472777e-04 2.095173586e-03 -3.661875188e-04 4.708613194e-03 -9.256714655e-01 1.900277891e-01
1.330000e+09 -8.035670717e-01 5.697286382e-01 7.790203619e-03 1.427567500e-02 5.778307268e-02 1.282305655e-01 -2.402860070e-04 2.277903565e-03
            6.682448556e-03 1.522563062e-02 -9.678376330e-01 2.483387733e-01 3.525524600e-03 1.692568041e-02 -7.616722987e-04 2.133364809e-03
            5.621777458e-02 1.299257792e-01 4.611059852e-03 1.618537948e-02 -9.663777015e-01 2.030552664e-01 -3.376077926e-04 5.179017953e-03
            -2.691675323e-04 2.253930865e-03 -5.839070711e-04 2.120780166e-03 -3.533071266e-04 4.754344965e-03 -9.251536012e-01 1.910422682e-01
1.340000e+09 -8.004099910e-01 5.736837112e-01 7.923812968e-03 1.436877917e-02 5.879428339e-02 1.293653216e-01 -2.222908693e-04 2.303497042e-03
            6.802134335e-03 1.534062781e-02 -9.673303437e-01 2.502117158e-01 3.591983024e-03 1.707019672e-02 -7.610327360e-04 2.160606865e-03
            5.724256334e-02 1.310539779e-01 4.694827372e-03 1.631400770e-02 -9.658116079e-01 2.048778234e-01 -3.244289692e-04 5.227528450e-03
            -2.523269802e-04 2.279328192e-03 -5.796072985e-04 2.146407643e-03 -3.401748932e-04 4.800017054e-03 -9.246385295e-01 1.920548987e-01
1.350000e+09 -7.972347252e-01 5.776214077e-01 8.058483390e-03 1.446093012e-02 5.981342585e-02 1.304949233e-01 -2.039707073e-04 2.328953709e-03
            6.922861517e-03 1.545518259e-02 -9.668195361e-01 2.520831458e-01 3.659108402e-03 1.721468477e-02 -7.602478893e-04 2.187929406e-03
            5.827274685e-02 1.321762557e-01 4.779379546e-03 1.644219711e-02 -9.652407286e-01 2.066983647e-01 -3.109968592e-04 5.275992529e-03
            -2.351762715e-04 2.304610024e-03 -5.751491233e-04 2.172055708e-03 -3.267932455e-04 4.845628485e-03 -9.241262146e-01 1.930657659e-01
1.360000e+09 -7.940412430e-01 5.815418244e-01 8.194200749e-03 1.455212684e-02 6.084061790e-02 1.316193359e-01 -1.853286949e-04 2.354271248e-03
            7.044630912e-03 1.556929649e-02 -9.663052531e-01 2.539530993e-01 3.726899431e-03 1.735914904e-02 -7.593183800e-04 2.215332005e-03
            5.930843334e-02 1.332927041e-01 4.864704026e-03 1.656994860e-02 -9.646649339e-01 2.085168730e-01 -2.973136227e-04 5.324409048e-03
            -2.177178420e-04 2.329774286e-03 -5.705336690e-04 2.197724100e-03 -3.131645392e-04 4.891178349e-03 -9.236166197e-01 1.940749528e-01
1.370000e+09 -7.908295091e-01 5.854450504e-01 8.330951435e-03 1.464236873e-02 6.187597168e-02 1.327385175e-01 -1.663679363e-04 2.379447436e-03
            7.167443600e-03 1.568297091e-02 -9.657875352e-01 2.558216136e-01 3.795355069e-03 1.750359405e-02 -7.582448101e-04 2.242814278e-03
            6.034973075e-02 1.344034067e-01 4.950788882e-03 1.669726346e-02 -9.640841000e-01 2.103333243e-01 -2.833813545e-04 5.372776943e-03
            -1.999540771e-04 2.354818963e-03 -5.657620193e-04 2.223412601e-03 -2.992910589e-04 4.936665802e-03 -9.231097070e-01 1.950825407e-01
1.380000e+09 -7.875994840e-01 5.893311669e-01 8.468722358e-03 1.473165553e-02 6.291959356e-02 1.338524193e-01 -1.470914656e-04 2.404480142e-03
            7.291300921e-03 1.579620718e-02 -9.652664203e-01 2.576887272e-01 3.864474528e-03 1.764802430e-02 -7.570277621e-04 2.270375889e-03
            6.139674653e-02 1.355084389e-01 5.037622613e-03 1.682414339e-02 -9.634981085e-01 2.121476879e-01 -2.692020835e-04 5.421095228e-03
            -1.818873118e-04 2.379742103e-03 -5.608352173e-04 2.249121038e-03 -2.851750179e-04 4.982090065e-03 -9.226054372e-01 1.960886093e-01
1.390000e+09 -7.843511248e-01 5.932002473e-01 8.607500953e-03 1.481998731e-02 6.397158415e-02 1.349609867e-01 -1.275022459e-04 2.429367317e-03
            7.416204473e-03 1.590900653e-02 -9.647419438e-01 2.595544791e-01 3.934257278e-03 1.779244431e-02 -7.556677980e-04 2.298016541e-03
            6.244958749e-02 1.366078685e-01 5.125194142e-03 1.695059047e-02 -9.629068473e-01 2.139599276e-01 -2.547777729e-04 5.469362989e-03
            -1.635198299e-04 2.404541812e-03 -5.557542651e-04 2.274849281e-03 -2.708185586e-04 5.027450413e-03 -9.221037703e-01 1.970932363e-01
1.400000e+09 -7.810843852e-01 5.970523577e-01 8.747275174e-03 1.490736444e-02 6.503203822e-02 1.360641589e-01 -1.076031689e-04 2.454106996e-03
            7.542156106e-03 1.602137009e-02 -9.642141386e-01 2.614189096e-01 4.004703034e-03 1.793685862e-02 -7.541654581e-04 2.325735982e-03
            6.350835965e-02 1.377017560e-01 5.213492821e-03 1.707660711e-02 -9.623102101e-01 2.157700016e-01 -2.401103194e-04 5.517579382e-03
            -1.448538636e-04 2.429216247e-03 -5.505201243e-04 2.300597237e-03 -2.562237529e-04 5.072746179e-03 -9.216046651e-01 1.980964976e-01
1.410000e+09 -7.777992159e-01 6.008875564e-01 8.888033497e-03 1.499378759e-02 6.610104472e-02 1.371618701e-01 -8.739705443e-05 2.478697284e-03
            7.669157918e-03 1.613329886e-02 -9.636830353e-01 2.632820593e-01 4.075811760e-03 1.808127173e-02 -7.525212610e-04 2.353533999e-03
            6.457316807e-02 1.387901544e-01 5.302508429e-03 1.720219609e-02 -9.617080962e-01 2.175778632e-01 -2.252015536e-04 5.565743626e-03
            -1.258915936e-04 2.453763617e-03 -5.451337149e-04 2.326364852e-03 -2.413926023e-04 5.117976747e-03 -9.211080797e-01 1.990984676e-01
1.420000e+09 -7.744955645e-01 6.047058944e-01 9.029764911e-03 1.507925766e-02 6.717868676e-02 1.382540490e-01 -6.688665026e-05 2.503136359e-03
            7.797212249e-03 1.624479374e-02 -9.631486620e-01 2.651439699e-01 4.147583662e-03 1.822568816e-02 -7.507357023e-04 2.381410417e-03
            6.564411672e-02 1.398731101e-01 5.392231176e-03 1.732736044e-02 -9.611004112e-01 2.193834610e-01 -2.100532398e-04 5.613855003e-03
            -1.066351484e-04 2.478182174e-03 -5.395959159e-04 2.352152109e-03 -2.263270389e-04 5.163141552e-03 -9.206139711e-01 2.000992187e-01
1.430000e+09 -7.711733762e-01 6.085074153e-01 9.172458920e-03 1.516377576e-02 6.826504164e-02 1.393406202e-01 -4.607463210e-05 2.527422462e-03
            7.926321679e-03 1.635585552e-02 -9.626110442e-01 2.670046834e-01 4.220019182e-03 1.837011237e-02 -7.488092541e-04 2.409365104e-03
            6.672130836e-02 1.409506625e-01 5.482651698e-03 1.745210353e-02 -9.604870664e-01 2.211867396e-01 -1.946670766e-04 5.661912853e-03
            -8.708660503e-05 2.502470215e-03 -5.339075649e-04 2.377959026e-03 -2.110289252e-04 5.208240074e-03 -9.201222958e-01 2.010988219e-01
1.440000e+09 -7.678325936e-01 6.122921553e-01 9.316105535e-03 1.524734324e-02 6.936018087e-02 1.404215038e-01 -2.496360358e-05 2.551553894e-03
            8.056489020e-03 1.646648484e-02 -9.620702055e-01 2.688642423e-01 4.293119001e-03 1.851454885e-02 -7.467423644e-04 2.437397962e-03
            6.780484444e-02 1.420228447e-01 5.573761061e-03 1.757642896e-02 -9.598679789e-01 2.229876395e-01 -1.790446962e-04 5.709916568e-03
            -6.724798842e-05 2.526626072e-03 -5.280694576e-04 2.403785651e-03 -1.955000554e-04 5.253271835e-03 -9.196330091e-01 2.020973464e-01
1.450000e+09 -7.644731572e-01 6.160601435e-01 9.460695275e-03 1.532996158e-02 7.046417021e-02 1.414966160e-01 -3.556096407e-06 2.575529014e-03
            8.187717314e-03 1.657668223e-02 -9.615261666e-01 2.707226896e-01 4.366884029e-03 1.865900201e-02 -7.445354568e-04 2.465508932e-03
            6.889482494e-02 1.430896834e-01 5.665550755e-03 1.770034059e-02 -9.592430719e-01 2.247860979e-01 -1.631876659e-04 5.757865592e-03
            -4.712127188e-05 2.550648116e-03 -5.220823488e-04 2.429632068e-03 -1.797421556e-04 5.298236400e-03 -9.191460661e-01 2.030948596e-01
1.460000e+09 -7.610950054e-01 6.198114017e-01 9.606219154e-03 1.541163246e-02 7.157706967e-02 1.425658695e-01 1.814542934e-05 2.599346230e-03
            8.320009826e-03 1.668644808e-02 -9.609789465e-01 2.725800686e-01 4.441315403e-03 1.880347627e-02 -7.421889294e-04 2.493697988e-03
            6.999134834e-02 1.441511992e-01 5.758012693e-03 1.782384248e-02 -9.586122740e-01 2.265820490e-01 -1.470974874e-04 5.805759417e-03
            -2.670837725e-05 2.574534749e-03 -5.159469512e-04 2.455498387e-03 -1.637568849e-04 5.343133370e-03 -9.186614210e-01 2.040914275e-01
1.470000e+09 -7.576980751e-01 6.235459448e-01 9.752668685e-03 1.549235765e-02 7.269893364e-02 1.436291739e-01 4.013858481e-05 2.623003998e-03
            8.453370043e-03 1.679578264e-02 -9.604285615e-01 2.744364228e-01 4.516414486e-03 1.894797597e-02 -7.397031549e-04 2.521965143e-03
            7.109451147e-02 1.452074069e-01 5.851139211e-03 1.794693893e-02 -9.579755198e-01 2.283754241e-01 -1.307755982e-04 5.853597578e-03
            -6.011175161e-06 2.598284400e-03 -5.096639363e-04 2.481384748e-03 -1.475458359e-04 5.387962383e-03 -9.181790272e-01 2.050871145e-01
1.480000e+09 -7.542823012e-01 6.272637804e-01 9.900035866e-03 1.557213907e-02 7.382981086e-02 1.446864357e-01 6.242105195e-05 2.646500819e-03
            8.587801666e-03 1.690468601e-02 -9.598750258e-01 2.762917960e-01 4.592182858e-03 1.909250544e-02 -7.370784794e-04 2.550310440e-03
            7.220440942e-02 1.462583157e-01 5.944923063e-03 1.806963441e-02 -9.573327497e-01 2.301661520e-01 -1.142233715e-04 5.901379653e-03
            1.496851458e-05 2.621895527e-03 -5.032339341e-04 2.507291317e-03 -1.311105359e-04 5.432723108e-03 -9.176988379e-01 2.060819833e-01
1.490000e+09 -7.508476174e-01 6.309649094e-01 1.004831318e-02 1.565097870e-02 7.496974456e-02 1.457375589e-01 8.499058289e-05 2.669835229e-03
            8.723308605e-03 1.701315816e-02 -9.593183515e-01 2.781462320e-01 4.668622318e-03 1.923706894e-02 -7.343152227e-04 2.578733958e-03
            7.332113552e-02 1.473039290e-01 6.039357418e-03 1.819193355e-02 -9.566839095e-01 2.319541595e-01 -9.744211733e-05 5.949105255e-03
            3.622892256e-05 2.645366608e-03 -4.966575331e-04 2.533218288e-03 -1.144524474e-04 5.477415246e-03 -9.172208056e-01 2.070760951e-01
1.500000e+09 -7.473939564e-01 6.346493256e-01 1.019749358e-02 1.572887861e-02 7.611877250e-02 1.467824451e-01 1.078449993e-04 2.693005805e-03
            8.859894978e-03 1.712119889e-02 -9.587585484e-01 2.799997747e-01 4.745734875e-03 1.938167068e-02 -7.314136774e-04 2.607235806e-03
            7.444478120e-02 1.483442454e-01 6.134435858e-03 1.831384116e-02 -9.560289505e-01 2.337393715e-01 -8.043308271e-05 5.996774034e-03
            5.776832931e-05 2.668696145e-03 -4.899352806e-04 2.559165876e-03 -9.757296922e-05 5.522038524e-03 -9.167448823e-01 2.080695096e-01
1.510000e+09 -7.439212495e-01 6.383170163e-01 1.034757050e-02 1.580584092e-02 7.727692702e-02 1.478209941e-01 1.309821917e-04 2.716011151e-03
            8.997565104e-03 1.722880786e-02 -9.581956242e-01 2.818524680e-01 4.823522748e-03 1.952631483e-02 -7.283741086e-04 2.635816128e-03
            7.557543597e-02 1.493792579e-01 6.230152374e-03 1.843536216e-02 -9.553678297e-01 2.355217114e-01 -6.319745280e-05 6.044385674e-03
            7.958506469e-05 2.691882654e-03 -4.830676828e-04 2.585134320e-03 -8.047343752e-05 5.566592697e-03 -9.162710197e-01 2.090622849e-01
1.520000e+09 -7.404294274e-01 6.419679617e-01 1.049853782e-02 1.588186777e-02 7.844423520e-02 1.488531036e-01 1.544001185e-04 2.738849902e-03
            9.136323498e-03 1.733598457e-02 -9.576295846e-01 2.837043557e-01 4.901988360e-03 1.967100547e-02 -7.251967535e-04 2.664475095e-03
            7.671318730e-02 1.504089548e-01 6.326501360e-03 1.855650160e-02 -9.547005093e-01 2.373011012e-01 -4.573635152e-05 6.091939885e-03
            1.016775074e-04 2.714924668e-03 -4.760552046e-04 2.611123882e-03 -6.315512679e-05 5.611077543e-03 -9.157991689e-01 2.100544778e-01
1.530000e+09 -7.369184201e-01 6.456021356e-01 1.065038988e-02 1.595696132e-02 7.962071888e-02 1.498786701e-01 1.780968054e-04 2.761520717e-03
            9.276174870e-03 1.744272833e-02 -9.570604331e-01 2.855554814e-01 4.981134335e-03 1.981574665e-02 -7.218818211e-04 2.693212910e-03
            7.785812062e-02 1.514333196e-01 6.423477612e-03 1.867726465e-02 -9.540269568e-01 2.390774621e-01 -2.805084238e-05 6.139436405e-03
            1.240440840e-04 2.737820732e-03 -4.688982703e-04 2.637134843e-03 -4.561925082e-05 5.655492859e-03 -9.153292808e-01 2.110461433e-01
1.540000e+09 -7.333881572e-01 6.492195051e-01 1.080312148e-02 1.603112376e-02 8.080639478e-02 1.508975887e-01 2.020703442e-04 2.784022278e-03
            9.417124114e-03 1.754903832e-02 -9.564881714e-01 2.874058886e-01 5.060963495e-03 1.996054232e-02 -7.184294919e-04 2.722029804e-03
            7.901031924e-02 1.524523312e-01 6.521076321e-03 1.879765655e-02 -9.533471451e-01 2.408507142e-01 -1.014192938e-05 6.186874999e-03
            1.466832689e-04 2.760569400e-03 -4.615972633e-04 2.663167502e-03 -2.786696387e-05 5.699838464e-03 -9.148613060e-01 2.120373353e-01
1.550000e+09 -7.298385679e-01 6.528200305e-01 1.095672784e-02 1.610435721e-02 8.200127461e-02 1.519097534e-01 2.263188918e-04 2.806353283e-03
            9.559176312e-03 1.765491353e-02 -9.559127990e-01 2.892556204e-01 5.141478853e-03 2.010539637e-02 -7.148399175e-04 2.750926039e-03
            8.016986428e-02 1.534659641e-01 6.619293070e-03 1.891768263e-02 -9.526610519e-01 2.426207774e-01 7.989442063e-06 6.234255449e-03
            1.695935827e-04 2.783169235e-03 -4.541525264e-04 2.689222179e-03 -9.899361679e-06 5.744114193e-03 -9.143951948e-01 2.130281061e-01
1.560000e+09 -7.262695812e-01 6.564036661e-01 1.111120462e-02 1.617666379e-02 8.320536514e-02 1.529150576e-01 2.508406692e-04 2.828512446e-03
            9.702336722e-03 1.776035277e-02 -9.553343136e-01 2.911047198e-01 5.222683614e-03 2.025031261e-02 -7.111132203e-04 2.779901902e-03
            8.133683465e-02 1.544741883e-01 6.718123829e-03 1.903734828e-02 -9.519686600e-01 2.443875711e-01 2.634238421e-05 6.281577560e-03
            1.927735921e-04 2.805618803e-03 -4.465643623e-04 2.715299208e-03 8.282517312e-06 5.788319897e-03 -9.139308970e-01 2.140185066e-01
1.570000e+09 -7.226811263e-01 6.599703595e-01 1.126654791e-02 1.624804557e-02 8.441866834e-02 1.539133939e-01 2.756339606e-04 2.850498496e-03
            9.846610779e-03 1.786535470e-02 -9.547527109e-01 2.929532291e-01 5.304581168e-03 2.039529479e-02 -7.072494931e-04 2.808957709e-03
            8.251130701e-02 1.554769698e-01 6.817564949e-03 1.915665894e-02 -9.512699572e-01 2.461510147e-01 4.491606596e-05 6.328841153e-03
            2.162219087e-04 2.827916678e-03 -4.388330334e-04 2.741398939e-03 2.667769088e-05 5.832455440e-03 -9.134683627e-01 2.150085863e-01
1.580000e+09 -7.190731324e-01 6.635200519e-01 1.142275420e-02 1.631850455e-02 8.564118147e-02 1.549046546e-01 3.006971119e-04 2.872310169e-03
            9.992004085e-03 1.796991777e-02 -9.541679849e-01 2.948011905e-01 5.387175086e-03 2.054034656e-02 -7.032487993e-04 2.838093800e-03
            8.369335568e-02 1.564742705e-01 6.917613158e-03 1.927562010e-02 -9.505649360e-01 2.479110277e-01 6.370971189e-05 6.376046063e-03
            2.399371884e-04 2.850061429e-03 -4.309587621e-04 2.767521738e-03 4.528523183e-05 5.876520696e-03 -9.130075413e-01 2.159983934e-01
1.590000e+09 -7.154455292e-01 6.670526783e-01 1.157982039e-02 1.638804265e-02 8.687289718e-02 1.558887320e-01 3.260285295e-04 2.893946207e-03
            1.013852241e-02 1.807404025e-02 -9.535801275e-01 2.966486455e-01 5.470469119e-03 2.068547147e-02 -6.991111720e-04 2.867310545e-03
            8.488305267e-02 1.574660487e-01 7.018265556e-03 1.939423724e-02 -9.498535934e-01 2.496675299e-01 8.272260113e-05 6.423192137e-03
            2.639181301e-04 2.872051628e-03 -4.229417313e-04 2.793667984e-03 6.410426680e-05 5.920515553e-03 -9.125483823e-01 2.169879745e-01
1.600000e+09 -7.117982468e-01 6.705681674e-01 1.173774378e-02 1.645666170e-02 8.811380364e-02 1.568655182e-01 3.516266794e-04 2.915405360e-03
            1.028617169e-02 1.817772024e-02 -9.529891292e-01 2.984956352e-01 5.554467192e-03 2.083067303e-02 -6.948366143e-04 2.896608336e-03
            8.608046760e-02 1.584522586e-01 7.119519609e-03 1.951251590e-02 -9.491359312e-01 2.514204415e-01 1.019540664e-04 6.470279234e-03
            2.881634751e-04 2.893885844e-03 -4.147820844e-04 2.819838068e-03 8.313397507e-05 5.964439904e-03 -9.120908350e-01 2.179773753e-01
1.610000e+09 -7.081312162e-01 6.740664420e-01 1.189652207e-02 1.652436343e-02 8.936388466e-02 1.578349054e-01 3.774900857e-04 2.936686375e-03
            1.043495801e-02 1.828095565e-02 -9.523949783e-01 3.003422000e-01 5.639173399e-03 2.097595460e-02 -6.904250988e-04 2.925987590e-03
            8.728566767e-02 1.594328511e-01 7.221373143e-03 1.963046159e-02 -9.484119554e-01 2.531696837e-01 1.214034928e-04 6.517307219e-03
            3.126720060e-04 2.915562639e-03 -4.064799256e-04 2.846032392e-03 1.023735873e-04 6.008293649e-03 -9.116348488e-01 2.189666397e-01
1.620000e+09 -7.044443689e-01 6.775474185e-01 1.205615331e-02 1.659114943e-02 9.062311979e-02 1.587967864e-01 4.036173290e-04 2.957788002e-03
            1.058488762e-02 1.838374416e-02 -9.517976617e-01 3.021883798e-01 5.724592005e-03 2.112131949e-02 -6.858765674e-04 2.955448749e-03
            8.849871763e-02 1.604077733e-01 7.323824341e-03 1.974807981e-02 -9.476816764e-01 2.549151781e-01 1.410703168e-04 6.564275966e-03
            3.374425456e-04 2.937080571e-03 -3.980353201e-04 2.872251370e-03 1.218223844e-04 6.052076693e-03 -9.111803727e-01 2.199558105e-01
1.630000e+09 -7.007376377e-01 6.810110073e-01 1.221663595e-02 1.665702119e-02 9.189148443e-02 1.597510545e-01 4.300070455e-04 2.978708986e-03
            1.073596689e-02 1.848608330e-02 -9.511971646e-01 3.040342138e-01 5.810727436e-03 2.126677090e-02 -6.811909311e-04 2.984992279e-03
            8.971967977e-02 1.613769693e-01 7.426871736e-03 1.986537606e-02 -9.469451089e-01 2.566568478e-01 1.609540250e-04 6.611185349e-03
            3.624739560e-04 2.958438189e-03 -3.894482944e-04 2.898495426e-03 1.414796963e-04 6.095788945e-03 -9.107273560e-01 2.209449294e-01
1.640000e+09 -6.970109562e-01 6.844571129e-01 1.237796879e-02 1.672198004e-02 9.316895000e-02 1.606976034e-01 4.566579253e-04 2.999448067e-03
            1.088820238e-02 1.858797037e-02 -9.505934704e-01 3.058797403e-01 5.897584278e-03 2.141231192e-02 -6.763680701e-04 3.014618667e-03
            9.094861387e-02 1.623403798e-01 7.530514203e-03 1.998235581e-02 -9.462022714e-01 2.583946167e-01 1.810541530e-04 6.658035249e-03
            3.877651374e-04 2.979634031e-03 -3.807188366e-04 2.924764990e-03 1.613449003e-04 6.139430317e-03 -9.102757477e-01 2.219340365e-01
1.650000e+09 -6.932642595e-01 6.878856340e-01 1.254015098e-02 1.678602715e-02 9.445548398e-02 1.616363280e-01 4.835687112e-04 3.020003978e-03
            1.104160074e-02 1.868940249e-02 -9.499865611e-01 3.077249970e-01 5.985167274e-03 2.155794556e-02 -6.714078330e-04 3.044328424e-03
            9.218557718e-02 1.632979423e-01 7.634750958e-03 2.009902445e-02 -9.454531866e-01 2.601284103e-01 2.013702846e-04 6.704825545e-03
            4.133150270e-04 3.000666625e-03 -3.718468967e-04 2.951060502e-03 1.814174204e-04 6.183000719e-03 -9.098254970e-01 2.229231707e-01
1.660000e+09 -6.894974842e-01 6.912964631e-01 1.270318201e-02 1.684916354e-02 9.575105010e-02 1.625671240e-01 5.107381970e-04 3.040375440e-03
            1.119616880e-02 1.879037654e-02 -9.493764171e-01 3.095700210e-01 6.073481319e-03 2.170367470e-02 -6.663100374e-04 3.074122083e-03
            9.343062438e-02 1.642495914e-01 7.739581550e-03 2.021538737e-02 -9.446978808e-01 2.618581552e-01 2.219020497e-04 6.751556113e-03
            4.391225980e-04 3.021534487e-03 -3.628323867e-04 2.977382409e-03 2.016967259e-04 6.226500062e-03 -9.093765530e-01 2.239123699e-01
1.670000e+09 -6.857105683e-01 6.946894873e-01 1.286706171e-02 1.691139004e-02 9.705560845e-02 1.634898881e-01 5.381652262e-04 3.060561165e-03
            1.135191349e-02 1.889088923e-02 -9.487630171e-01 3.114148480e-01 6.162531458e-03 2.184950215e-02 -6.610744690e-04 3.104000198e-03
            9.468380760e-02 1.651952588e-01 7.845005853e-03 2.033144988e-02 -9.439363839e-01 2.635837798e-01 2.426491242e-04 6.798226829e-03
            4.651868585e-04 3.042236115e-03 -3.536751812e-04 3.003731163e-03 2.221823295e-04 6.269928254e-03 -9.089288650e-01 2.249016704e-01
1.680000e+09 -6.819034516e-01 6.980645876e-01 1.303179025e-02 1.697270730e-02 9.836911556e-02 1.644045183e-01 5.658486903e-04 3.080559851e-03
            1.150884187e-02 1.899093704e-02 -9.481463385e-01 3.132595134e-01 6.252322880e-03 2.199543058e-02 -6.557008819e-04 3.133963343e-03
            9.594517633e-02 1.661348734e-01 7.951024064e-03 2.044721720e-02 -9.431687297e-01 2.653052143e-01 2.636112280e-04 6.844837564e-03
            4.915068499e-04 3.062769996e-03 -3.443751173e-04 3.030107223e-03 2.428737870e-04 6.313285201e-03 -9.084823823e-01 2.258911075e-01
1.690000e+09 -6.780760759e-01 7.014216397e-01 1.319736808e-02 1.703311577e-02 9.969152458e-02 1.653109141e-01 5.937875276e-04 3.100370179e-03
            1.166696115e-02 1.909051623e-02 -9.475263573e-01 3.151040512e-01 6.342860918e-03 2.214146256e-02 -6.501889984e-04 3.164012116e-03
            9.721477745e-02 1.670683614e-01 8.057636696e-03 2.056269452e-02 -9.423949552e-01 2.670223906e-01 2.847881240e-04 6.891388180e-03
            5.180816462e-04 3.083134596e-03 -3.349319951e-04 3.056511050e-03 2.637706953e-04 6.356570803e-03 -9.080370543e-01 2.268807153e-01
1.700000e+09 -6.742283848e-01 7.047605133e-01 1.336379599e-02 1.709261568e-02 1.010227854e-01 1.662089763e-01 6.219807212e-04 3.119990815e-03
            1.182627861e-02 1.918962286e-02 -9.469030480e-01 3.169484948e-01 6.434151040e-03 2.228760054e-02 -6.445385086e-04 3.194147130e-03
            9.849265518e-02 1.679956465e-01 8.164844570e-03 2.067788689e-02 -9.416151005e-01 2.687352425e-01 3.061796173e-04 6.937878534e-03
            5.449103525e-04 3.103328366e-03 -3.253455780e-04 3.082943111e-03 2.848726912e-04 6.399784955e-03 -9.075928305e-01 2.278705266e-01
1.710000e+09 -6.703603244e-01 7.080810728e-01 1.353107504e-02 1.715120707e-02 1.023628446e-01 1.670986072e-01 6.504272978e-04 3.139420403e-03
            1.198680170e-02 1.928825276e-02 -9.462763837e-01 3.187928763e-01 6.526198853e-03 2.243384689e-02 -6.387490706e-04 3.224369022e-03
            9.977885109e-02 1.689166497e-01 8.272648812e-03 2.079279931e-02 -9.408292091e-01 2.704437059e-01 3.277855531e-04 6.984308472e-03
            5.719921039e-04 3.123349736e-03 -3.156155928e-04 3.109403875e-03 3.061794505e-04 6.442927544e-03 -9.071496606e-01 2.288605730e-01
1.720000e+09 -6.664718427e-01 7.113831771e-01 1.369920659e-02 1.720888973e-02 1.037116460e-01 1.679797111e-01 6.791263259e-04 3.158657569e-03
            1.214853792e-02 1.938640153e-02 -9.456463361e-01 3.206372269e-01 6.619010093e-03 2.258020381e-02 -6.328203100e-04 3.254678447e-03
            1.010734040e-01 1.698312899e-01 8.381050846e-03 2.090743666e-02 -9.400373275e-01 2.721477187e-01 3.496058162e-04 7.030677829e-03
            5.993260641e-04 3.143197115e-03 -3.057417305e-04 3.135893813e-03 3.276906862e-04 6.485998451e-03 -9.067074944e-01 2.298508849e-01
1.730000e+09 -6.625628907e-01 7.146666796e-01 1.386819228e-02 1.726566321e-02 1.050691303e-01 1.688521937e-01 7.080769143e-04 3.177700916e-03
            1.231149492e-02 1.948406457e-02 -9.450128760e-01 3.224815767e-01 6.712590621e-03 2.272667344e-02 -6.267518201e-04 3.285076078e-03
            1.023763501e-01 1.707394834e-01 8.490052387e-03 2.102180369e-02 -9.392395050e-01 2.738472213e-01 3.716403293e-04 7.076986428e-03
            6.269114242e-04 3.162868893e-03 -2.957236457e-04 3.162413398e-03 3.494061474e-04 6.528997545e-03 -9.062662821e-01 2.308414917e-01
1.740000e+09 -6.586334215e-01 7.179314283e-01 1.403803400e-02 1.732152685e-02 1.064352355e-01 1.697159628e-01 7.372782104e-04 3.196549023e-03
            1.247568042e-02 1.958123703e-02 -9.443759725e-01 3.243259547e-01 6.806946428e-03 2.287325774e-02 -6.205431615e-04 3.315562608e-03
            1.036877228e-01 1.716411446e-01 8.599655438e-03 2.113590506e-02 -9.384357937e-01 2.755421560e-01 3.938890521e-04 7.123234079e-03
            6.547474012e-04 3.182363434e-03 -2.855609579e-04 3.188963102e-03 3.713256183e-04 6.571924688e-03 -9.058259736e-01 2.318324216e-01
1.750000e+09 -6.546833913e-01 7.211772661e-01 1.420873391e-02 1.737647969e-02 1.078098968e-01 1.705709281e-01 7.667293984e-04 3.215200446e-03
            1.264110226e-02 1.967791383e-02 -9.437355938e-01 3.261703886e-01 6.902083620e-03 2.301995861e-02 -6.141938623e-04 3.346138746e-03
            1.050075527e-01 1.725361855e-01 8.709862280e-03 2.124974529e-02 -9.376262483e-01 2.772324679e-01 4.163519798e-04 7.169420575e-03
            6.828332372e-04 3.201679080e-03 -2.752532510e-04 3.215543400e-03 3.934489163e-04 6.614779729e-03 -9.053865197e-01 2.328237014e-01
1.760000e+09 -6.507127593e-01 7.244040304e-01 1.438029443e-02 1.743052054e-02 1.091930472e-01 1.714170013e-01 7.964296979e-04 3.233653711e-03
            1.280776836e-02 1.977408968e-02 -9.430917067e-01 3.280149051e-01 6.998008422e-03 2.316677777e-02 -6.077034176e-04 3.376805221e-03
            1.063358676e-01 1.734245164e-01 8.820675469e-03 2.136332878e-02 -9.368109260e-01 2.789181044e-01 4.390291415e-04 7.215545695e-03
            7.111681974e-04 3.220814151e-03 -2.648000741e-04 3.242154765e-03 4.157758912e-04 6.657562505e-03 -9.049478708e-01 2.338153570e-01
1.770000e+09 -6.467214874e-01 7.276115537e-01 1.455271818e-02 1.748364794e-02 1.105846168e-01 1.722540962e-01 8.263783620e-04 3.251907319e-03
            1.297568670e-02 1.986975902e-02 -9.424442771e-01 3.298595295e-01 7.094727175e-03 2.331371686e-02 -6.010712896e-04 3.407562778e-03
            1.076726927e-01 1.743060452e-01 8.932097829e-03 2.147665977e-02 -9.359898864e-01 2.805990152e-01 4.619205996e-04 7.261609199e-03
            7.397515691e-04 3.239766938e-03 -2.542009417e-04 3.268797667e-03 4.383064236e-04 6.700272840e-03 -9.045099779e-01 2.348074131e-01
1.780000e+09 -6.427095410e-01 7.307996633e-01 1.472600805e-02 1.753586013e-02 1.119845339e-01 1.730821289e-01 8.565746757e-04 3.269959742e-03
            1.314486538e-02 1.996491608e-02 -9.417932695e-01 3.317042860e-01 7.192246326e-03 2.346077736e-02 -5.942969073e-04 3.438412180e-03
            1.090180502e-01 1.751806784e-01 9.044132446e-03 2.158974236e-02 -9.351631912e-01 2.822751530e-01 4.850264481e-04 7.307610827e-03
            7.685826602e-04 3.258535708e-03 -2.434553337e-04 3.295472576e-03 4.610404236e-04 6.742910545e-03 -9.040727922e-01 2.357998932e-01
1.790000e+09 -6.386768889e-01 7.339681814e-01 1.490016712e-02 1.758715509e-02 1.133927242e-01 1.739010176e-01 8.870179541e-04 3.287809420e-03
            1.331531256e-02 2.005955485e-02 -9.411386477e-01 3.335491974e-01 7.290572430e-03 2.360796065e-02 -5.873796669e-04 3.469354205e-03
            1.103719595e-01 1.760483205e-01 9.156782662e-03 2.170258050e-02 -9.343309043e-01 2.839464728e-01 5.083468113e-04 7.353550302e-03
            7.976607980e-04 3.277118702e-03 -2.325626961e-04 3.322179959e-03 4.839778296e-04 6.785475416e-03 -9.036362653e-01 2.367928199e-01
1.800000e+09 -6.346235033e-01 7.371169254e-01 1.507519868e-02 1.763753049e-02 1.148091118e-01 1.747106829e-01 9.177075406e-04 3.305454765e-03
            1.348703646e-02 2.015366904e-02 -9.404803743e-01 3.353942851e-01 7.389712145e-03 2.375526797e-02 -5.803189308e-04 3.500389651e-03
            1.117344371e-01 1.769088743e-01 9.270052070e-03 2.181517798e-02 -9.334930914e-01 2.856129324e-01 5.318818424e-04 7.399427324e-03
            8.269853275e-04 3.295514132e-03 -2.215224411e-04 3.348920280e-03 5.071186072e-04 6.827967233e-03 -9.032003488e-01 2.377862145e-01
1.810000e+09 -6.305493601e-01 7.402457077e-01 1.525110623e-02 1.768698371e-02 1.162336184e-01 1.755110477e-01 9.486428055e-04 3.322894152e-03
            1.366004539e-02 2.024725217e-02 -9.398184109e-01 3.372395692e-01 7.489672227e-03 2.390270041e-02 -5.731140283e-04 3.531519328e-03
            1.131054967e-01 1.777622411e-01 9.383944506e-03 2.192753842e-02 -9.326498203e-01 2.872744925e-01 5.556317225e-04 7.445241569e-03
            8.565556101e-04 3.313720184e-03 -2.103339475e-04 3.375693998e-03 5.304627471e-04 6.870385761e-03 -9.027649948e-01 2.387800971e-01
1.820000e+09 -6.264544391e-01 7.433543361e-01 1.542789345e-02 1.773551182e-02 1.176661644e-01 1.763020373e-01 9.798231435e-04 3.340125927e-03
            1.383434769e-02 2.034029747e-02 -9.391527183e-01 3.390850685e-01 7.590459530e-03 2.405025896e-02 -5.657642550e-04 3.562744065e-03
            1.144851489e-01 1.786083206e-01 9.498464043e-03 2.203966526e-02 -9.318011602e-01 2.889311165e-01 5.795966591e-04 7.490992693e-03
            8.863710220e-04 3.331735012e-03 -1.989965610e-04 3.402501568e-03 5.540102648e-04 6.912730746e-03 -9.023301558e-01 2.397744869e-01
1.830000e+09 -6.223387240e-01 7.464426134e-01 1.560556418e-02 1.778311157e-02 1.191066680e-01 1.770835798e-01 1.011247973e-03 3.357148401e-03
            1.400995178e-02 2.043279793e-02 -9.384832562e-01 3.409308002e-01 7.692080998e-03 2.419794445e-02 -5.582688731e-04 3.594064704e-03
            1.158734016e-01 1.794470112e-01 9.613614988e-03 2.215156176e-02 -9.309471820e-01 2.905827705e-01 6.037768847e-04 7.536680325e-03
            9.164309531e-04 3.349556746e-03 -1.875095943e-04 3.429343440e-03 5.777611984e-04 6.955001919e-03 -9.018957846e-01 2.407694020e-01
1.840000e+09 -6.182022026e-01 7.495103379e-01 1.578412246e-02 1.782977941e-02 1.205550464e-01 1.778556053e-01 1.042916733e-03 3.373959847e-03
            1.418686612e-02 2.052474630e-02 -9.378099837e-01 3.427767801e-01 7.794543664e-03 2.434575759e-02 -5.506271108e-04 3.625482104e-03
            1.172702596e-01 1.802782096e-01 9.729401870e-03 2.226323100e-02 -9.300879579e-01 2.922294236e-01 6.281726556e-04 7.582304071e-03
            9.467348052e-04 3.367183483e-03 -1.758723279e-04 3.456220058e-03 6.017156079e-04 6.997198990e-03 -9.014618343e-01 2.417648593e-01
1.850000e+09 -6.140448671e-01 7.525573035e-01 1.596357246e-02 1.787551143e-02 1.220112148e-01 1.786180468e-01 1.074828881e-03 3.390558506e-03
            1.436509922e-02 2.061613506e-02 -9.371328588e-01 3.446230225e-01 7.897854645e-03 2.449369896e-02 -5.428381624e-04 3.656997139e-03
            1.186757249e-01 1.811018116e-01 9.845829442e-03 2.237467587e-02 -9.292235614e-01 2.938710479e-01 6.527842503e-04 7.627863509e-03
            9.772819903e-04 3.384613290e-03 -1.640840098e-04 3.483131859e-03 6.258735736e-04 7.039321652e-03 -9.010282583e-01 2.427608747e-01
1.860000e+09 -6.098667142e-01 7.555832994e-01 1.614391849e-02 1.792030343e-02 1.234750876e-01 1.793708398e-01 1.106983895e-03 3.406942580e-03
            1.454465962e-02 2.070695644e-02 -9.364518391e-01 3.464695401e-01 8.002021140e-03 2.464176897e-02 -5.349011883e-04 3.688610698e-03
            1.200897961e-01 1.819177116e-01 9.962902664e-03 2.248589905e-02 -9.283540673e-01 2.955076181e-01 6.776119685e-04 7.673358190e-03
            1.008071930e-03 3.401844206e-03 -1.521438565e-04 3.510079276e-03 6.502351946e-04 7.081369576e-03 -9.005950106e-01 2.437574629e-01
1.870000e+09 -6.056677451e-01 7.585881105e-01 1.632516502e-02 1.796415082e-02 1.249465777e-01 1.801139225e-01 1.139381267e-03 3.423110234e-03
            1.472555591e-02 2.079720240e-02 -9.357668812e-01 3.483163443e-01 8.107050425e-03 2.478996792e-02 -5.268153149e-04 3.720323681e-03
            1.215124693e-01 1.827258029e-01 1.008062671e-02 2.259690301e-02 -9.274795513e-01 2.971391121e-01 7.026561297e-04 7.718787637e-03
            1.039104051e-03 3.418874238e-03 -1.400510528e-04 3.537062730e-03 6.748005878e-04 7.123342417e-03 -9.001620454e-01 2.447546376e-01
1.880000e+09 -6.014479657e-01 7.615715176e-01 1.650731662e-02 1.800704871e-02 1.264255970e-01 1.808472356e-01 1.172020501e-03 3.439059596e-03
            1.490779670e-02 2.088686466e-02 -9.350779412e-01 3.501634446e-01 8.212949849e-03 2.493829596e-02 -5.185796342e-04 3.752137008e-03
            1.229437370e-01 1.835259778e-01 1.019900694e-02 2.270769003e-02 -9.266000899e-01 2.987655108e-01 7.279170715e-04 7.764151344e-03
            1.070377790e-03 3.435701362e-03 -1.278047523e-04 3.564082638e-03 6.995698865e-04 7.165239805e-03 -8.997293174e-01 2.457524116e-01
1.890000e+09 -5.972073870e-01 7.645332970e-01 1.669037798e-02 1.804899184e-02 1.279120564e-01 1.815707227e-01 1.204901115e-03 3.454788752e-03
            1.509139061e-02 2.097593465e-02 -9.343849742e-01 3.520108489e-01 8.319726832e-03 2.508675310e-02 -5.101932038e-04 3.784051608e-03
            1.243835891e-01 1.843181275e-01 1.031804893e-02 2.281826216e-02 -9.257157604e-01 3.003867979e-01 7.533951486e-04 7.809448776e-03
            1.101892584e-03 3.452323524e-03 -1.154040779e-04 3.591139405e-03 7.245432390e-04 7.207061351e-03 -8.992967818e-01 2.467507963e-01
1.900000e+09 -5.929460251e-01 7.674732213e-01 1.687435389e-02 1.808997458e-02 1.294058662e-01 1.822843299e-01 1.238022638e-03 3.470295753e-03
            1.527634629e-02 2.106440356e-02 -9.336879353e-01 3.538585636e-01 8.427388860e-03 2.523533922e-02 -5.016550472e-04 3.816068426e-03
            1.258320121e-01 1.851021426e-01 1.043775843e-02 2.292862123e-02 -9.248266407e-01 3.020029602e-01 7.790907311e-04 7.854679366e-03
            1.133647874e-03 3.468738639e-03 -1.028481219e-04 3.618233429e-03 7.497208071e-04 7.248806644e-03 -8.988643941e-01 2.477498023e-01
1.910000e+09 -5.886639011e-01 7.703910587e-01 1.705924922e-02 1.812999096e-02 1.309069356e-01 1.829880062e-01 1.271384604e-03 3.485578607e-03
            1.546267241e-02 2.115226228e-02 -9.329867785e-01 3.557065933e-01 8.535943480e-03 2.538405403e-02 -4.929641528e-04 3.848188421e-03
            1.272889895e-01 1.858779125e-01 1.055814136e-02 2.303876883e-02 -9.239328093e-01 3.036139874e-01 8.050042034e-04 7.899842517e-03
            1.165643103e-03 3.484944589e-03 -9.013594649e-05 3.645365098e-03 7.751027650e-04 7.290475250e-03 -8.984321103e-01 2.487494391e-01
1.920000e+09 -5.843610418e-01 7.732865739e-01 1.724506894e-02 1.816903462e-02 1.324151735e-01 1.836817032e-01 1.304986556e-03 3.500635285e-03
            1.565037762e-02 2.123950146e-02 -9.322814576e-01 3.575549410e-01 8.645398299e-03 2.553289711e-02 -4.841194748e-04 3.880412563e-03
            1.287545015e-01 1.866453264e-01 1.067920384e-02 2.314870634e-02 -9.230343448e-01 3.052198724e-01 8.311359627e-04 7.944937600e-03
            1.197877711e-03 3.500939227e-03 -7.726658408e-05 3.672534788e-03 8.006892980e-04 7.332066714e-03 -8.979998869e-01 2.497497150e-01
1.930000e+09 -5.800374794e-01 7.761595277e-01 1.743181807e-02 1.820709886e-02 1.339304883e-01 1.843653754e-01 1.338828040e-03 3.515463714e-03
            1.583947059e-02 2.132611146e-02 -9.315719259e-01 3.594036078e-01 8.755760977e-03 2.568186789e-02 -4.751199322e-04 3.912741837e-03
            1.302285253e-01 1.874042723e-01 1.080095213e-02 2.325843488e-02 -9.221313263e-01 3.068206107e-01 8.574864176e-04 7.989963952e-03
            1.230351139e-03 3.516720374e-03 -6.423903770e-05 3.699742866e-03 8.264806009e-04 7.373580556e-03 -8.975676809e-01 2.507506374e-01
1.940000e+09 -5.756932519e-01 7.790096773e-01 1.761950167e-02 1.824417657e-02 1.354527879e-01 1.850389800e-01 1.372908603e-03 3.530061782e-03
            1.602995998e-02 2.141208237e-02 -9.308581363e-01 3.612525931e-01 8.867039224e-03 2.583096566e-02 -4.659644094e-04 3.945177241e-03
            1.317110348e-01 1.881546381e-01 1.092339267e-02 2.336795533e-02 -9.212238325e-01 3.084162013e-01 8.840559865e-04 8.034920878e-03
            1.263062820e-03 3.532285819e-03 -5.105228129e-05 3.726989686e-03 8.524768768e-04 7.415016275e-03 -8.971354497e-01 2.517522127e-01
1.950000e+09 -5.713284033e-01 7.818367764e-01 1.780812487e-02 1.828026027e-02 1.369819801e-01 1.857024769e-01 1.407227795e-03 3.544427335e-03
            1.622185440e-02 2.149740400e-02 -9.301400413e-01 3.631018944e-01 8.979240800e-03 2.598018956e-02 -4.566517554e-04 3.977719784e-03
            1.332020007e-01 1.888963110e-01 1.104653205e-02 2.347726833e-02 -9.203119425e-01 3.100066457e-01 9.108450964e-04 8.079807649e-03
            1.296012186e-03 3.547633322e-03 -3.770526017e-05 3.754275592e-03 8.786783360e-04 7.456373344e-03 -8.967031512e-01 2.527544461e-01
1.960000e+09 -5.669429836e-01 7.846405752e-01 1.799769282e-02 1.831534209e-02 1.385179725e-01 1.863558288e-01 1.441785162e-03 3.558558178e-03
            1.641516250e-02 2.158206590e-02 -9.294175931e-01 3.649515075e-01 9.092373504e-03 2.612953857e-02 -4.471807843e-04 4.010370488e-03
            1.347013903e-01 1.896291778e-01 1.117037699e-02 2.358637424e-02 -9.193957350e-01 3.115919487e-01 9.378541816e-04 8.124623501e-03
            1.329198657e-03 3.562760610e-03 -2.419689137e-05 3.781600913e-03 9.050851940e-04 7.497651213e-03 -8.962707440e-01 2.537573418e-01
1.970000e+09 -5.625370490e-01 7.874208209e-01 1.818821068e-02 1.834941377e-02 1.400606727e-01 1.869990013e-01 1.476580247e-03 3.572452075e-03
            1.660989284e-02 2.166605731e-02 -9.286907437e-01 3.668014263e-01 9.206445175e-03 2.627901153e-02 -4.375502748e-04 4.043130388e-03
            1.362091678e-01 1.903531252e-01 1.129493437e-02 2.369527318e-02 -9.184752883e-01 3.131721178e-01 9.650836818e-04 8.169367635e-03
            1.362621646e-03 3.577665380e-03 -1.052606405e-05 3.808965968e-03 9.316976708e-04 7.538849309e-03 -8.958381869e-01 2.547609030e-01
1.980000e+09 -5.581106621e-01 7.901772574e-01 1.837968362e-02 1.838246665e-02 1.416099885e-01 1.876319626e-01 1.511612586e-03 3.586106747e-03
            1.680605400e-02 2.174936722e-02 -9.279594448e-01 3.686516427e-01 9.321463685e-03 2.642860714e-02 -4.277589700e-04 4.076000530e-03
            1.377252940e-01 1.910680396e-01 1.142021119e-02 2.380396499e-02 -9.175506803e-01 3.147471637e-01 9.925340411e-04 8.214039218e-03
            1.396280557e-03 3.592345300e-03 3.308360095e-06 3.836371060e-03 9.585159892e-04 7.579967034e-03 -8.954054397e-01 2.557651319e-01
1.990000e+09 -5.536638923e-01 7.929096259e-01 1.857211680e-02 1.841449168e-02 1.431658277e-01 1.882546837e-01 1.546881708e-03 3.599519873e-03
            1.700365447e-02 2.183198431e-02 -9.272236482e-01 3.705021468e-01 9.437436938e-03 2.657832392e-02 -4.178055777e-04 4.108981973e-03
            1.392497263e-01 1.917738072e-01 1.154621458e-02 2.391244926e-02 -9.166219883e-01 3.163170997e-01 1.020205706e-03 8.258637379e-03
            1.430174779e-03 3.606798008e-03 1.730754641e-05 3.863816478e-03 9.855403736e-04 7.621003763e-03 -8.949724622e-01 2.567700297e-01
2.000000e+09 -5.491968154e-01 7.956176644e-01 1.876551535e-02 1.844547939e-02 1.447280988e-01 1.888671384e-01 1.582387133e-03 3.612689093e-03
            1.720270271e-02 2.191389699e-02 -9.264833053e-01 3.723529267e-01 9.554372862e-03 2.672816026e-02 -4.076887697e-04 4.142075785e-03
            1.407824187e-01 1.924703142e-01 1.167295177e-02 2.402072526e-02 -9.156892887e-01 3.178819422e-01 1.048099125e-03 8.303161212e-03
            1.464303687e-03 3.621021110e-03 3.147268685e-05 3.891302498e-03 1.012771048e-03 7.661958850e-03 -8.945392153e-01 2.577755965e-01
2.010000e+09 -5.447095144e-01 7.983011087e-01 1.895988439e-02 1.847541991e-02 1.462967103e-01 1.894693031e-01 1.618128367e-03 3.625612002e-03
            1.740320714e-02 2.199509339e-02 -9.257383676e-01 3.742039686e-01 9.672279407e-03 2.687811439e-02 -3.974071823e-04 4.175283047e-03
            1.423233221e-01 1.931574470e-01 1.180043013e-02 2.412879202e-02 -9.147526573e-01 3.194417103e-01 1.076214746e-03 8.347609775e-03
            1.498666641e-03 3.635012186e-03 4.580499952e-05 3.918829379e-03 1.040208237e-03 7.702831621e-03 -8.941056601e-01 2.587818314e-01
2.020000e+09 -5.402020794e-01 8.009596920e-01 1.915522897e-02 1.850430295e-02 1.478715718e-01 1.900611571e-01 1.654104902e-03 3.638286154e-03
            1.760517608e-02 2.207556134e-02 -9.249887866e-01 3.760552564e-01 9.791164542e-03 2.702818439e-02 -3.869594155e-04 4.208604853e-03
            1.438723835e-01 1.938350922e-01 1.192865710e-02 2.423664825e-02 -9.138121686e-01 3.209964260e-01 1.104553014e-03 8.391982088e-03
            1.533262981e-03 3.648768787e-03 6.030572826e-05 3.946397367e-03 1.067852160e-03 7.743621378e-03 -8.936717585e-01 2.597887324e-01
2.030000e+09 -5.356746075e-01 8.035931450e-01 1.935155407e-02 1.853211782e-02 1.494525932e-01 1.906426821e-01 1.690316214e-03 3.650709064e-03
            1.780861781e-02 2.215528839e-02 -9.242345141e-01 3.779067725e-01 9.911036245e-03 2.717836818e-02 -3.763440335e-04 4.242042305e-03
            1.454295470e-01 1.945031364e-01 1.205764023e-02 2.434429240e-02 -9.128678962e-01 3.225461140e-01 1.133114373e-03 8.436277133e-03
            1.568092030e-03 3.662288435e-03 7.497614214e-05 3.974006689e-03 1.095703035e-03 7.784327400e-03 -8.932374728e-01 2.607962968e-01
2.040000e+09 -5.311272035e-01 8.062011966e-01 1.954886462e-02 1.855885341e-02 1.510396854e-01 1.912138628e-01 1.726761761e-03 3.662878203e-03
            1.801354051e-02 2.223426181e-02 -9.234755017e-01 3.797584967e-01 1.003190251e-02 2.732866353e-02 -3.655595641e-04 4.275596516e-03
            1.469947526e-01 1.951614669e-01 1.218738714e-02 2.445172258e-02 -9.119199120e-01 3.240908016e-01 1.161899261e-03 8.480493857e-03
            1.603153087e-03 3.675568625e-03 8.981753496e-05 4.001657558e-03 1.123761072e-03 7.824948937e-03 -8.928027663e-01 2.618045205e-01
2.050000e+09 -5.265599796e-01 8.087835738e-01 1.974716544e-02 1.858449816e-02 1.526327601e-01 1.917746861e-01 1.763440980e-03 3.674791002e-03
            1.821995226e-02 2.231246856e-02 -9.227117014e-01 3.816104070e-01 1.015377132e-02 2.747906805e-02 -3.546044986e-04 4.309268612e-03
            1.485679374e-01 1.958099713e-01 1.231790554e-02 2.455893663e-02 -9.109682869e-01 3.256305191e-01 1.190908110e-03 8.524631169e-03
            1.638445430e-03 3.688606827e-03 1.048312248e-04 4.029350168e-03 1.152026478e-03 7.865485218e-03 -8.923676024e-01 2.628133987e-01
2.060000e+09 -5.219730559e-01 8.113400015e-01 1.994646124e-02 1.860904012e-02 1.542317301e-01 1.923251419e-01 1.800353284e-03 3.686444852e-03
            1.842786107e-02 2.238989532e-02 -9.219430656e-01 3.834624794e-01 1.027665067e-02 2.762957919e-02 -3.434772921e-04 4.343059726e-03
            1.501490346e-01 1.964485378e-01 1.244920319e-02 2.466593206e-02 -9.100130901e-01 3.271652990e-01 1.220141344e-03 8.568687938e-03
            1.673968309e-03 3.701400484e-03 1.200185534e-04 4.057084696e-03 1.180499448e-03 7.905935444e-03 -8.919319457e-01 2.638229254e-01
2.070000e+09 -5.173665603e-01 8.138702037e-01 2.014675662e-02 1.863246690e-02 1.558365094e-01 1.928652224e-01 1.837498063e-03 3.697837104e-03
            1.863727483e-02 2.246652849e-02 -9.211695467e-01 3.853146875e-01 1.040054855e-02 2.778019427e-02 -3.321763626e-04 4.376971005e-03
            1.517379740e-01 1.970770553e-01 1.258128793e-02 2.477270607e-02 -9.090543889e-01 3.286951767e-01 1.249599378e-03 8.612662997e-03
            1.709720950e-03 3.713947016e-03 1.353808858e-04 4.084861302e-03 1.209180170e-03 7.946298793e-03 -8.914957611e-01 2.648330939e-01
2.080000e+09 -5.127406289e-01 8.163739026e-01 2.034805604e-02 1.865476568e-02 1.574470132e-01 1.933949224e-01 1.874874678e-03 3.708965069e-03
            1.884820132e-02 2.254235418e-02 -9.203910979e-01 3.871670031e-01 1.052547293e-02 2.793091042e-02 -3.207000917e-04 4.411003603e-03
            1.533346819e-01 1.976954136e-01 1.271416761e-02 2.487925557e-02 -9.080922491e-01 3.302201899e-01 1.279282615e-03 8.656555143e-03
            1.745702547e-03 3.726243818e-03 1.509196096e-04 4.112680127e-03 1.238068820e-03 7.986574417e-03 -8.910590141e-01 2.658438963e-01
2.090000e+09 -5.080954061e-01 8.188508198e-01 2.055036380e-02 1.867592320e-02 1.590631580e-01 1.939142391e-01 1.912482461e-03 3.719826019e-03
            1.906064818e-02 2.261735818e-02 -9.196076725e-01 3.890193954e-01 1.065143177e-02 2.808172462e-02 -3.090468237e-04 4.445158684e-03
            1.549390808e-01 1.983035033e-01 1.284785016e-02 2.498557709e-02 -9.071267341e-01 3.317403788e-01 1.309191449e-03 8.700363131e-03
            1.781912266e-03 3.738288261e-03 1.666361345e-04 4.140541292e-03 1.267165564e-03 8.026761445e-03 -8.906216714e-01 2.668553236e-01
2.100000e+09 -5.034310444e-01 8.213006756e-01 2.075368405e-02 1.869592580e-02 1.606848621e-01 1.944231721e-01 1.950320713e-03 3.730417189e-03
            1.927462293e-02 2.269152603e-02 -9.188192248e-01 3.908718318e-01 1.077843302e-02 2.823263372e-02 -2.972148659e-04 4.479437423e-03
            1.565510897e-01 1.989012161e-01 1.298234352e-02 2.509166688e-02 -9.061579056e-01 3.332557859e-01 1.339326255e-03 8.744085684e-03
            1.818349239e-03 3.750077699e-03 1.825318916e-04 4.168444900e-03 1.296470553e-03 8.066858981e-03 -8.901836998e-01 2.678673663e-01
2.110000e+09 -4.987477053e-01 8.237231903e-01 2.095802073e-02 1.871475936e-02 1.623120450e-01 1.949217234e-01 1.988388699e-03 3.740735775e-03
            1.949013296e-02 2.276484296e-02 -9.180257092e-01 3.927242773e-01 1.090648458e-02 2.838363439e-02 -2.852024883e-04 4.513841004e-03
            1.581706242e-01 1.994884449e-01 1.311765564e-02 2.519752084e-02 -9.051858228e-01 3.347664560e-01 1.369687396e-03 8.787721482e-03
            1.855012564e-03 3.761609460e-03 1.986083330e-04 4.196391033e-03 1.325983922e-03 8.106866105e-03 -8.897450671e-01 2.688800136e-01
2.120000e+09 -4.940455587e-01 8.261180835e-01 2.116337759e-02 1.873240933e-02 1.639446283e-01 1.954098972e-01 2.026685652e-03 3.750778937e-03
            1.970718548e-02 2.283729390e-02 -9.172270814e-01 3.945766949e-01 1.103559435e-02 2.853472314e-02 -2.730079236e-04 4.548370619e-03
            1.597975961e-01 2.000650839e-01 1.325379448e-02 2.530313453e-02 -9.042105427e-01 3.362724362e-01 1.400275216e-03 8.831269173e-03
            1.891901301e-03 3.772880858e-03 2.148669309e-04 4.224379756e-03 1.355705792e-03 8.146781872e-03 -8.893057419e-01 2.698932538e-01
2.130000e+09 -4.893247835e-01 8.284850750e-01 2.136975817e-02 1.874886072e-02 1.655825351e-01 1.958877001e-01 2.065210761e-03 3.760543798e-03
            1.992578755e-02 2.290886353e-02 -9.164232975e-01 3.964290451e-01 1.116577018e-02 2.868589633e-02 -2.606293667e-04 4.583027472e-03
            1.614319134e-01 2.006310285e-01 1.339076801e-02 2.540850317e-02 -9.032321195e-01 3.377737755e-01 1.431090043e-03 8.874727364e-03
            1.929014474e-03 3.783889186e-03 2.313091772e-04 4.252411109e-03 1.385636264e-03 8.186605318e-03 -8.888656935e-01 2.709070743e-01
2.140000e+09 -4.845855677e-01 8.308238848e-01 2.157716576e-02 1.876409813e-02 1.672256906e-01 1.963551406e-01 2.103963180e-03 3.770027450e-03
            2.014594607e-02 2.297953619e-02 -9.156143145e-01 3.982812863e-01 1.129701988e-02 2.883715019e-02 -2.480649748e-04 4.617812772e-03
            1.630734808e-01 2.011861760e-01 1.352858417e-02 2.551362163e-02 -9.022506051e-01 3.392705251e-01 1.462132180e-03 8.918094629e-03
            1.966351066e-03 3.794631721e-03 2.479365825e-04 4.280485114e-03 1.415775424e-03 8.226335451e-03 -8.884248918e-01 2.719214618e-01
2.150000e+09 -4.798281083e-01 8.331342335e-01 2.178560339e-02 1.877810570e-02 1.688740221e-01 1.968122296e-01 2.142942016e-03 3.779226946e-03
            2.036766775e-02 2.304929599e-02 -9.148000905e-01 4.001333748e-01 1.142935121e-02 2.898848074e-02 -2.353128670e-04 4.652727739e-03
            1.647221990e-01 2.017304252e-01 1.366725089e-02 2.561848444e-02 -9.012660483e-01 3.407627381e-01 1.493401913e-03 8.961369503e-03
            2.003910017e-03 3.805105727e-03 2.647506757e-04 4.308601771e-03 1.446123334e-03 8.265971260e-03 -8.879833077e-01 2.729364018e-01
2.160000e+09 -4.750526117e-01 8.354158424e-01 2.199507383e-02 1.879086716e-02 1.705274591e-01 1.972589796e-01 2.182146332e-03 3.788139310e-03
            2.059095909e-02 2.311812672e-02 -9.139805845e-01 4.019852643e-01 1.156277188e-02 2.913988390e-02 -2.223711247e-04 4.687773603e-03
            1.663779654e-01 2.022636766e-01 1.380677605e-02 2.572308576e-02 -9.002784952e-01 3.422504694e-01 1.524899502e-03 9.004550489e-03
            2.041690226e-03 3.815308454e-03 2.817530032e-04 4.336761059e-03 1.476680037e-03 8.305511713e-03 -8.875409127e-01 2.739518790e-01
2.170000e+09 -4.702592938e-01 8.376684342e-01 2.220557956e-02 1.880236579e-02 1.721859331e-01 1.976954054e-01 2.221575145e-03 3.796761534e-03
            2.081582642e-02 2.318601191e-02 -9.131557569e-01 4.038369065e-01 1.169728957e-02 2.929135541e-02 -2.092377905e-04 4.722951598e-03
            1.680406735e-01 2.027858330e-01 1.394716747e-02 2.582741940e-02 -8.992879888e-01 3.437337756e-01 1.556625180e-03 9.047636052e-03
            2.079690544e-03 3.825237141e-03 2.989451279e-04 4.364962933e-03 1.507445550e-03 8.344955753e-03 -8.870976794e-01 2.749678774e-01
2.180000e+09 -4.654483798e-01 8.398917331e-01 2.241712273e-02 1.881258444e-02 1.738493782e-01 1.981215234e-01 2.261227421e-03 3.805090579e-03
            2.104227583e-02 2.325293479e-02 -9.123255690e-01 4.056882509e-01 1.183291188e-02 2.944289084e-02 -1.959108689e-04 4.758262969e-03
            1.697102133e-01 2.032967990e-01 1.408843293e-02 2.593147881e-02 -8.982945688e-01 3.452127150e-01 1.588579158e-03 9.090624625e-03
            2.117909774e-03 3.834889015e-03 3.163286288e-04 4.393207327e-03 1.538419871e-03 8.384302307e-03 -8.866535808e-01 2.759843800e-01
2.190000e+09 -4.606201048e-01 8.420854650e-01 2.262970517e-02 1.882150556e-02 1.755177311e-01 1.985373518e-01 2.301102075e-03 3.813123380e-03
            2.127031321e-02 2.331887834e-02 -9.114899837e-01 4.075392445e-01 1.196964632e-02 2.959448565e-02 -1.823883255e-04 4.793708970e-03
            1.713864711e-01 2.037964817e-01 1.423058013e-02 2.603525706e-02 -8.972982717e-01 3.466873474e-01 1.620761614e-03 9.133514606e-03
            2.156346673e-03 3.844261298e-03 3.339051000e-04 4.421494154e-03 1.569602967e-03 8.423550280e-03 -8.862085911e-01 2.770013690e-01
2.200000e+09 -4.557747138e-01 8.442493583e-01 2.284332837e-02 1.882911114e-02 1.771909308e-01 1.989429104e-01 2.341197967e-03 3.820856841e-03
            2.149994419e-02 2.338382525e-02 -9.106489652e-01 4.093898322e-01 1.210750038e-02 2.974613513e-02 -1.686680872e-04 4.829290860e-03
            1.730693295e-01 2.042847904e-01 1.437361666e-02 2.613874688e-02 -8.962991305e-01 3.481577338e-01 1.653172699e-03 9.176304364e-03
            2.194999945e-03 3.853351206e-03 3.516761497e-04 4.449823302e-03 1.600994783e-03 8.462698559e-03 -8.857626852e-01 2.780188257e-01
2.210000e+09 -4.509124613e-01 8.463831438e-01 2.305799343e-02 1.883538278e-02 1.788689191e-01 1.993382206e-01 2.381513903e-03 3.828287843e-03
            2.173117417e-02 2.344775795e-02 -9.098024792e-01 4.112399565e-01 1.224648143e-02 2.989783439e-02 -1.547480417e-04 4.865009908e-03
            1.747586677e-01 2.047616372e-01 1.451755003e-02 2.624194059e-02 -8.952971749e-01 3.496239366e-01 1.685812531e-03 9.218992231e-03
            2.233868240e-03 3.862155950e-03 3.696433996e-04 4.478194637e-03 1.632595234e-03 8.501746011e-03 -8.853158389e-01 2.790367309e-01
2.220000e+09 -4.460336123e-01 8.484865553e-01 2.327370108e-02 1.884030165e-02 1.805516407e-01 1.997233050e-01 2.422048628e-03 3.835413245e-03
            2.196400828e-02 2.351065860e-02 -9.089504931e-01 4.130895580e-01 1.238659679e-02 3.004957845e-02 -1.406260375e-04 4.900867389e-03
            1.764543612e-01 2.052269369e-01 1.466238763e-02 2.634483016e-02 -8.942924304e-01 3.510860193e-01 1.718681197e-03 9.261576514e-03
            2.272950157e-03 3.870672741e-03 3.878084839e-04 4.506608002e-03 1.664404205e-03 8.540691490e-03 -8.848680289e-01 2.800550643e-01
2.230000e+09 -4.411384414e-01 8.505593301e-01 2.349045160e-02 1.884384851e-02 1.822390432e-01 2.000981878e-01 2.462800827e-03 3.842229880e-03
            2.219845141e-02 2.357250910e-02 -9.080929760e-01 4.149385747e-01 1.252785365e-02 3.020136214e-02 -1.262998836e-04 4.936864586e-03
            1.781562820e-01 2.056806071e-01 1.480813670e-02 2.644740718e-02 -8.932849192e-01 3.525440464e-01 1.751778746e-03 9.304055489e-03
            2.312244235e-03 3.878898789e-03 4.061730484e-04 4.535063215e-03 1.696421554e-03 8.579533829e-03 -8.844192329e-01 2.810738051e-01
2.240000e+09 -4.362272336e-01 8.526012092e-01 2.370824489e-02 1.884600371e-02 1.839310770e-01 2.004628942e-01 2.503769126e-03 3.848734565e-03
            2.243450813e-02 2.363329110e-02 -9.072298990e-01 4.167869425e-01 1.267025916e-02 3.035318016e-02 -1.117673494e-04 4.973002789e-03
            1.798642985e-01 2.061225686e-01 1.495480435e-02 2.654966285e-02 -8.922746592e-01 3.539980831e-01 1.785105193e-03 9.346427401e-03
            2.351748960e-03 3.886831309e-03 4.247387495e-04 4.563560072e-03 1.728647104e-03 8.618271851e-03 -8.839694293e-01 2.820929316e-01
2.250000e+09 -4.313002841e-01 8.546119379e-01 2.392708034e-02 1.884674722e-02 1.856276958e-01 2.008174505e-01 2.544952081e-03 3.854924097e-03
            2.267218274e-02 2.369298601e-02 -9.063612349e-01 4.186345952e-01 1.281382034e-02 3.050502708e-02 -9.702616413e-05 5.009283295e-03
            1.815782757e-01 2.065527454e-01 1.510239752e-02 2.665158800e-02 -8.912616645e-01 3.554481955e-01 1.818660516e-03 9.388690474e-03
            2.391462755e-03 3.894467521e-03 4.435072531e-04 4.592098346e-03 1.761080649e-03 8.656904361e-03 -8.835185976e-01 2.831124217e-01
2.260000e+09 -4.263578982e-01 8.565912663e-01 2.414695689e-02 1.884605860e-02 1.873288564e-01 2.011618838e-01 2.586348185e-03 3.860795259e-03
            2.291147925e-02 2.375157498e-02 -9.054869589e-01 4.204814644e-01 1.295854410e-02 3.065689731e-02 -8.207401702e-05 5.045707408e-03
            1.832980752e-01 2.069710648e-01 1.525092297e-02 2.675317307e-02 -8.902459449e-01 3.568944499e-01 1.852444653e-03 9.430842903e-03
            2.431383983e-03 3.901804654e-03 4.624802339e-04 4.620677786e-03 1.793721948e-03 8.695430155e-03 -8.830667184e-01 2.841322525e-01
2.270000e+09 -4.214003917e-01 8.585389493e-01 2.436787297e-02 1.884391704e-02 1.890345189e-01 2.014962220e-01 2.627955861e-03 3.866344819e-03
            2.315240133e-02 2.380903893e-02 -9.046070481e-01 4.223274794e-01 1.310443727e-02 3.080878513e-02 -6.690855682e-05 5.082276438e-03
            1.850235553e-01 2.073774581e-01 1.540038728e-02 2.685440812e-02 -8.892275061e-01 3.583369133e-01 1.886457501e-03 9.472882861e-03
            2.471510948e-03 3.908839946e-03 4.816593741e-04 4.649298116e-03 1.826570724e-03 8.733848014e-03 -8.826137730e-01 2.851524003e-01
2.280000e+09 -4.164280906e-01 8.604547479e-01 2.458982650e-02 1.884030136e-02 1.907446467e-01 2.018204937e-01 2.669773464e-03 3.871569534e-03
            2.339495233e-02 2.386535855e-02 -9.037214822e-01 4.241725677e-01 1.325150654e-02 3.096068470e-02 -5.152739160e-05 5.118991704e-03
            1.867545708e-01 2.077718601e-01 1.555079679e-02 2.695528281e-02 -8.882063491e-01 3.597756526e-01 1.920698915e-03 9.514808499e-03
            2.511841886e-03 3.915570650e-03 5.010463623e-04 4.677959039e-03 1.859626667e-03 8.772156713e-03 -8.821597438e-01 2.861728411e-01
2.290000e+09 -4.114413311e-01 8.623384289e-01 2.481281483e-02 1.883519000e-02 1.924592069e-01 2.021347279e-01 2.711799272e-03 3.876466154e-03
            2.363913527e-02 2.392051431e-02 -9.028302431e-01 4.260166546e-01 1.339975849e-02 3.111259004e-02 -3.592808842e-05 5.155854528e-03
            1.884909734e-01 2.081542096e-01 1.570215764e-02 2.705578645e-02 -8.871824707e-01 3.612107349e-01 1.955168707e-03 9.556617948e-03
            2.552374972e-03 3.921994038e-03 5.206428927e-04 4.706660232e-03 1.892889430e-03 8.810355017e-03 -8.817046143e-01 2.871935503e-01
2.300000e+09 -4.064404600e-01 8.641897659e-01 2.503683475e-02 1.882856107e-02 1.941781698e-01 2.024389538e-01 2.754031493e-03 3.881031423e-03
            2.388495282e-02 2.397448648e-02 -9.019333156e-01 4.278596632e-01 1.354919957e-02 3.126449503e-02 -2.010817312e-05 5.192866242e-03
            1.902326116e-01 2.085244497e-01 1.585447569e-02 2.715590794e-02 -8.861558630e-01 3.626422270e-01 1.989866643e-03 9.598309322e-03
            2.593108314e-03 3.928107399e-03 5.404506635e-04 4.735401351e-03 1.926358628e-03 8.848441684e-03 -8.812483689e-01 2.882145027e-01
2.310000e+09 -4.014258342e-01 8.660085395e-01 2.526188245e-02 1.882039231e-02 1.959015096e-01 2.027332010e-01 2.796468258e-03 3.885262081e-03
            2.413240726e-02 2.402725510e-02 -9.010306869e-01 4.297015150e-01 1.369983611e-02 3.141639345e-02 -4.065129968e-06 5.230028181e-03
            1.919793310e-01 2.088825278e-01 1.600775655e-02 2.725563579e-02 -8.851265135e-01 3.640701953e-01 2.024792446e-03 9.639880719e-03
            2.634039951e-03 3.933908044e-03 5.604713760e-04 4.764182027e-03 1.960033838e-03 8.886415467e-03 -8.807909931e-01 2.892356727e-01
2.320000e+09 -3.963978207e-01 8.677945381e-01 2.548795351e-02 1.881066117e-02 1.976292040e-01 2.030174986e-01 2.839107619e-03 3.889154869e-03
            2.438150054e-02 2.407880003e-02 -9.001223472e-01 4.315421293e-01 1.385167430e-02 3.156827895e-02 1.220359867e-05 5.267341689e-03
            1.937309741e-01 2.092283960e-01 1.616200555e-02 2.735495814e-02 -8.840944049e-01 3.654947058e-01 2.059945787e-03 9.681330224e-03
            2.675167857e-03 3.939393315e-03 5.807067336e-04 4.793001872e-03 1.993914600e-03 8.924275117e-03 -8.803324735e-01 2.902570345e-01
2.330000e+09 -3.913567969e-01 8.695475583e-01 2.571504285e-02 1.879934478e-02 1.993612346e-01 2.032918759e-01 2.881947552e-03 3.892706530e-03
            2.463223420e-02 2.412910095e-02 -8.992082898e-01 4.333814238e-01 1.400472019e-02 3.172014506e-02 2.870061265e-05 5.304808114e-03
            1.954873805e-01 2.095620112e-01 1.631722770e-02 2.745386277e-02 -8.830595150e-01 3.669158235e-01 2.095326294e-03 9.722655910e-03
            2.716489936e-03 3.944560578e-03 6.011584400e-04 4.821860471e-03 2.028000412e-03 8.962019381e-03 -8.798727978e-01 2.912785616e-01
2.340000e+09 -3.863031500e-01 8.712674058e-01 2.594314474e-02 1.878641995e-02 2.010975868e-01 2.035563614e-01 2.924985951e-03 3.895913814e-03
            2.488460937e-02 2.417813737e-02 -8.982885110e-01 4.352193142e-01 1.415897968e-02 3.187198521e-02 4.542855440e-05 5.342428813e-03
            1.972483872e-01 2.098833350e-01 1.647342769e-02 2.755233705e-02 -8.820218168e-01 3.683336126e-01 2.130933540e-03 9.763855843e-03
            2.758004023e-03 3.949407236e-03 6.218281986e-04 4.850757391e-03 2.062290736e-03 8.999647010e-03 -8.794119548e-01 2.923002274e-01
2.350000e+09 -3.812372773e-01 8.729538952e-01 2.617225273e-02 1.877186323e-02 2.028382498e-01 2.038109833e-01 2.968220628e-03 3.898773479e-03
            2.513862680e-02 2.422588862e-02 -8.973630104e-01 4.370557147e-01 1.431445853e-02 3.202379272e-02 6.239010933e-05 5.380205145e-03
            1.990138285e-01 2.101923346e-01 1.663060985e-02 2.765036799e-02 -8.809812781e-01 3.697481360e-01 2.166767051e-03 9.804928084e-03
            2.799707880e-03 3.953930728e-03 6.427177106e-04 4.879692176e-03 2.096784989e-03 9.037156754e-03 -8.789499342e-01 2.933220050e-01
2.360000e+09 -3.761595859e-01 8.746068517e-01 2.640235968e-02 1.875565093e-02 2.045832169e-01 2.040557686e-01 3.011649313e-03 3.901282298e-03
            2.539428679e-02 2.427233390e-02 -8.964317911e-01 4.388905379e-01 1.447116233e-02 3.217556081e-02 7.958800622e-05 5.418138478e-03
            2.007835364e-01 2.104889824e-01 1.678877817e-02 2.774794223e-02 -8.799378617e-01 3.711594550e-01 2.202826299e-03 9.845870688e-03
            2.841599203e-03 3.958128531e-03 6.638286742e-04 4.908664349e-03 2.131482550e-03 9.074547371e-03 -8.784867272e-01 2.943438673e-01
2.370000e+09 -3.710704924e-01 8.762261107e-01 2.663345767e-02 1.873775909e-02 2.063324852e-01 2.042907435e-01 3.055269652e-03 3.903437057e-03
            2.565158925e-02 2.431745228e-02 -8.954948596e-01 4.407236948e-01 1.462909653e-02 3.232728262e-02 9.702501764e-05 5.456230187e-03
            2.025573404e-01 2.107732564e-01 1.694793622e-02 2.784504607e-02 -8.788915256e-01 3.725676295e-01 2.239110706e-03 9.886681715e-03
            2.883675614e-03 3.961998170e-03 6.851627831e-04 4.937673415e-03 2.166382756e-03 9.111817624e-03 -8.780223258e-01 2.953657872e-01
2.380000e+09 -3.659704229e-01 8.778115190e-01 2.686553805e-02 1.871816354e-02 2.080860561e-01 2.045159327e-01 3.099079207e-03 3.905234567e-03
            2.591053360e-02 2.436122269e-02 -8.945522263e-01 4.425550952e-01 1.478826640e-02 3.247895117e-02 1.147039605e-04 5.494481650e-03
            2.043350681e-01 2.110451405e-01 1.710808716e-02 2.794166542e-02 -8.778422222e-01 3.739727172e-01 2.275619639e-03 9.927359226e-03
            2.925934664e-03 3.965537215e-03 7.067217249e-04 4.966718857e-03 2.201484905e-03 9.148966286e-03 -8.775567234e-01 2.963877375e-01
2.390000e+09 -3.608598128e-01 8.793629355e-01 2.709859134e-02 1.869683992e-02 2.098439349e-01 2.047313596e-01 3.143075453e-03 3.906671658e-03
            2.617111885e-02 2.440362397e-02 -8.936039055e-01 4.443846473e-01 1.494867707e-02 3.263055943e-02 1.326276963e-04 5.532894253e-03
            2.061165449e-01 2.113046248e-01 1.726923374e-02 2.803778586e-02 -8.767898989e-01 3.753747739e-01 2.312352410e-03 9.967901288e-03
            2.968373834e-03 3.968743290e-03 7.285071801e-04 4.995800144e-03 2.236788250e-03 9.185992143e-03 -8.770899144e-01 2.974096908e-01
2.400000e+09 -3.557391061e-01 8.808802315e-01 2.733260725e-02 1.867376371e-02 2.116061311e-01 2.049370457e-01 3.187255781e-03 3.907745190e-03
            2.643334352e-02 2.444463487e-02 -8.926499154e-01 4.462122586e-01 1.511033346e-02 3.278210029e-02 1.507991320e-04 5.571469389e-03
            2.079015948e-01 2.115517053e-01 1.743137822e-02 2.813339262e-02 -8.757344979e-01 3.767738528e-01 2.349308280e-03 1.000830598e-02
            3.010990535e-03 3.971614074e-03 7.505208206e-04 5.024916725e-03 2.272292006e-03 9.222893993e-03 -8.766218946e-01 2.984316199e-01
2.410000e+09 -3.506087558e-01 8.823632916e-01 2.756757466e-02 1.864891024e-02 2.133726581e-01 2.051330104e-01 3.231617495e-03 3.908452056e-03
            2.669720566e-02 2.448423406e-02 -8.916902786e-01 4.480378353e-01 1.527324036e-02 3.293356656e-02 1.692212203e-04 5.610208456e-03
            2.096900400e-01 2.117863849e-01 1.759452239e-02 2.822847060e-02 -8.746759560e-01 3.781700043e-01 2.386486452e-03 1.004857140e-02
            3.053782106e-03 3.974147309e-03 7.727643082e-04 5.054068033e-03 2.307995345e-03 9.259670653e-03 -8.761526608e-01 2.994534981e-01
2.420000e+09 -3.454692230e-01 8.838120143e-01 2.780348156e-02 1.862225471e-02 2.151435338e-01 2.053192709e-01 3.276157812e-03 3.908789182e-03
            2.696270286e-02 2.452240017e-02 -8.907250219e-01 4.498612828e-01 1.543740234e-02 3.308495101e-02 1.878969605e-04 5.649112859e-03
            2.114817015e-01 2.120086729e-01 1.775866753e-02 2.832300439e-02 -8.736142050e-01 3.795632760e-01 2.423886076e-03 1.008869566e-02
            3.096745818e-03 3.976340797e-03 7.952392931e-04 5.083253488e-03 2.343897401e-03 9.296320961e-03 -8.756822112e-01 3.004752983e-01
2.430000e+09 -3.403209766e-01 8.852263129e-01 2.804031505e-02 1.859377227e-02 2.169187801e-01 2.054958419e-01 3.320873864e-03 3.908753537e-03
            2.722983220e-02 2.455911178e-02 -8.897541766e-01 4.516825058e-01 1.560282382e-02 3.323624634e-02 2.068293987e-04 5.688184010e-03
            2.132763993e-01 2.122185857e-01 1.792381439e-02 2.841697825e-02 -8.725491713e-01 3.809537121e-01 2.461506245e-03 1.012867688e-02
            3.139878872e-03 3.978192415e-03 8.179474130e-04 5.112472496e-03 2.379997265e-03 9.332843776e-03 -8.752105450e-01 3.014969943e-01
2.440000e+09 -3.351644933e-01 8.866061158e-01 2.827806130e-02 1.856343797e-02 2.186984228e-01 2.056627353e-01 3.365762696e-03 3.908342135e-03
            2.749859027e-02 2.459434748e-02 -8.887777789e-01 4.535014085e-01 1.576950903e-02 3.338744521e-02 2.260216290e-04 5.727423327e-03
            2.150739526e-01 2.124161467e-01 1.808996315e-02 2.851037617e-02 -8.714807759e-01 3.823413535e-01 2.499345998e-03 1.016851324e-02
            3.183178402e-03 3.979700110e-03 8.408902910e-04 5.141724450e-03 2.416293991e-03 9.369237983e-03 -8.747376628e-01 3.025185601e-01
2.450000e+09 -3.300002565e-01 8.879513678e-01 2.851670556e-02 1.853122690e-02 2.204824921e-01 2.058199597e-01 3.410821268e-03 3.907552038e-03
            2.776897315e-02 2.462808583e-02 -8.877958695e-01 4.553178948e-01 1.593746201e-02 3.353854027e-02 2.454767941e-04 5.766832238e-03
            2.168741801e-01 2.126013866e-01 1.825711343e-02 2.860318183e-02 -8.704089350e-01 3.837262370e-01 2.537404318e-03 1.020820293e-02
            3.226641478e-03 3.980861909e-03 8.640695348e-04 5.171008737e-03 2.452786593e-03 9.405502498e-03 -8.742635663e-01 3.035399700e-01
2.460000e+09 -3.248287566e-01 8.892620301e-01 2.875623208e-02 1.849711412e-02 2.222710223e-01 2.059675205e-01 3.456046455e-03 3.906380363e-03
            2.804097641e-02 2.466030545e-02 -8.868084946e-01 4.571318683e-01 1.610668662e-02 3.368952412e-02 2.651980857e-04 5.806412176e-03
            2.186769002e-01 2.127743439e-01 1.842526422e-02 2.869537867e-02 -8.693335593e-01 3.851083952e-01 2.575680136e-03 1.024774417e-02
            3.270265103e-03 3.981675919e-03 8.874867350e-04 5.200324732e-03 2.489474048e-03 9.441636268e-03 -8.737882588e-01 3.045611994e-01
2.470000e+09 -3.196504896e-01 8.905380818e-01 2.899662415e-02 1.846107477e-02 2.240640516e-01 2.061054193e-01 3.501435050e-03 3.904824285e-03
            2.831459511e-02 2.469098500e-02 -8.858157050e-01 4.589432328e-01 1.627718653e-02 3.384038935e-02 2.851887461e-04 5.846164581e-03
            2.204819318e-01 2.129350645e-01 1.859441387e-02 2.878694985e-02 -8.682545545e-01 3.864878566e-01 2.614172327e-03 1.028713524e-02
            3.314046221e-03 3.982140339e-03 9.111434637e-04 5.229671806e-03 2.526355299e-03 9.477638276e-03 -8.733117443e-01 3.055822238e-01
2.480000e+09 -3.144659570e-01 8.917795201e-01 2.923786402e-02 1.842308410e-02 2.258616222e-01 2.062336538e-01 3.546983763e-03 3.902881046e-03
            2.858982377e-02 2.472010321e-02 -8.848175572e-01 4.607518925e-01 1.644896523e-02 3.399112858e-02 3.054520684e-04 5.886090904e-03
            2.222890939e-01 2.130836024e-01 1.876456008e-02 2.887787834e-02 -8.671718214e-01 3.878646446e-01 2.652879713e-03 1.032637444e-02
            3.357981714e-03 3.982253457e-03 9.350412732e-04 5.259049326e-03 2.563429250e-03 9.513507544e-03 -8.728340285e-01 3.066030201e-01
2.490000e+09 -3.092756653e-01 8.929863611e-01 2.947993293e-02 1.838311746e-02 2.276637803e-01 2.063522172e-01 3.592689224e-03 3.900547954e-03
            2.886665639e-02 2.474763892e-02 -8.838141132e-01 4.625577518e-01 1.662202601e-02 3.414173438e-02 3.259913979e-04 5.926192602e-03
            2.240982065e-01 2.132200197e-01 1.893569986e-02 2.896814686e-02 -8.660852558e-01 3.892387776e-01 2.691801066e-03 1.036546016e-02
            3.402068409e-03 3.982013660e-03 9.591816950e-04 5.288456658e-03 2.600694777e-03 9.549243138e-03 -8.723551182e-01 3.076235657e-01
2.500000e+09 -3.040801248e-01 8.941586408e-01 2.972281105e-02 1.834115044e-02 2.294705761e-01 2.064610981e-01 3.638547985e-03 3.897822391e-03
            2.914508646e-02 2.477357109e-02 -8.828054405e-01 4.643607163e-01 1.679637199e-02 3.429219940e-02 3.468101331e-04 5.966471145e-03
            2.259090909e-01 2.133443869e-01 1.910782949e-02 2.905773798e-02 -8.649947486e-01 3.906102687e-01 2.730935106e-03 1.040439081e-02
            3.446303079e-03 3.981419435e-03 9.835662379e-04 5.317893169e-03 2.638150721e-03 9.584844171e-03 -8.718750215e-01 3.086438393e-01
2.510000e+09 -2.988798491e-01 8.952964157e-01 2.996647748e-02 1.829715881e-02 2.312820633e-01 2.065602802e-01 3.684556522e-03 3.894701820e-03
            2.942510690e-02 2.479787884e-02 -8.817916124e-01 4.661606924e-01 1.697200607e-02 3.444251628e-02 3.679117268e-04 6.006928008e-03
            2.277215699e-01 2.134567827e-01 1.928094452e-02 2.914663409e-02 -8.639001862e-01 3.919791252e-01 2.770280505e-03 1.044316488e-02
            3.490682445e-03 3.980469376e-03 1.008196387e-03 5.347358230e-03 2.675795897e-03 9.620309803e-03 -8.713937476e-01 3.096638205e-01
2.520000e+09 -2.936753545e-01 8.963997633e-01 3.021091022e-02 1.825111867e-02 2.330982992e-01 2.066497420e-01 3.730711240e-03 3.891183788e-03
            2.970671013e-02 2.482054146e-02 -8.807727083e-01 4.679575878e-01 1.714893101e-02 3.459267773e-02 3.892996874e-04 6.047564681e-03
            2.295354684e-01 2.135572948e-01 1.945503972e-02 2.923481744e-02 -8.628014503e-01 3.933453481e-01 2.809835887e-03 1.048178093e-02
            3.535203186e-03 3.979162191e-03 1.033073604e-03 5.376851219e-03 2.713629092e-03 9.655639252e-03 -8.709113071e-01 3.106834905e-01
2.530000e+09 -2.884671587e-01 8.974687833e-01 3.045608619e-02 1.820300644e-02 2.349193450e-01 2.067294559e-01 3.777008472e-03 3.887265931e-03
            2.998988802e-02 2.484153847e-02 -8.797488135e-01 4.697513122e-01 1.732714936e-02 3.474267649e-02 4.109775801e-04 6.088382661e-03
            2.313506141e-01 2.136460194e-01 1.963010907e-02 2.932227019e-02 -8.616984184e-01 3.947089322e-01 2.849599833e-03 1.052023758e-02
            3.579861935e-03 3.977496701e-03 1.058199323e-03 5.406371526e-03 2.751649070e-03 9.690831794e-03 -8.704277117e-01 3.117028317e-01
2.540000e+09 -2.832557802e-01 8.985035981e-01 3.070198114e-02 1.815279892e-02 2.367452649e-01 2.067993888e-01 3.823444487e-03 3.882945981e-03
            3.027463193e-02 2.486084963e-02 -8.787200196e-01 4.715417769e-01 1.750666350e-02 3.489250540e-02 4.329490287e-04 6.129383460e-03
            2.331668374e-01 2.137230617e-01 1.980614570e-02 2.940897440e-02 -8.605909638e-01 3.960698656e-01 2.889570882e-03 1.055853355e-02
            3.624655292e-03 3.975471849e-03 1.083574952e-03 5.435918553e-03 2.789854575e-03 9.725886765e-03 -8.699429745e-01 3.127218281e-01
2.550000e+09 -2.780417372e-01 8.995043532e-01 3.094856974e-02 1.810047339e-02 2.385761264e-01 2.068595009e-01 3.870015493e-03 3.878221771e-03
            3.056093266e-02 2.487845496e-02 -8.776864248e-01 4.733288959e-01 1.768747564e-02 3.504215738e-02 4.552177165e-04 6.170568600e-03
            2.349839723e-01 2.137885360e-01 1.998314192e-02 2.949491211e-02 -8.594789558e-01 3.974281290e-01 2.929747533e-03 1.059666765e-02
            3.669579823e-03 3.973086704e-03 1.109201871e-03 5.465491720e-03 2.828244333e-03 9.760803569e-03 -8.694571097e-01 3.137404653e-01
2.560000e+09 -2.728255465e-01 9.004712185e-01 3.119582547e-02 1.804600761e-02 2.404120000e-01 2.069097458e-01 3.916717641e-03 3.873091240e-03
            3.084878053e-02 2.489433479e-02 -8.766481335e-01 4.751125856e-01 1.786958780e-02 3.519162542e-02 4.777873887e-04 6.211939619e-03
            2.368018571e-01 2.138425657e-01 2.016108914e-02 2.958006534e-02 -8.583622602e-01 3.987836958e-01 2.970128251e-03 1.063463875e-02
            3.714632071e-03 3.970340465e-03 1.135081432e-03 5.495090469e-03 2.866817058e-03 9.795581683e-03 -8.689701327e-01 3.147587310e-01
2.570000e+09 -2.676077221e-01 9.014043885e-01 3.144372067e-02 1.798937996e-02 2.422529592e-01 2.069500698e-01 3.963547030e-03 3.867552436e-03
            3.113816532e-02 2.490846982e-02 -8.756052568e-01 4.768927656e-01 1.805300187e-02 3.534090267e-02 5.006618537e-04 6.253498069e-03
            2.386203343e-01 2.138852834e-01 2.033997786e-02 2.966441615e-02 -8.572407391e-01 4.001365316e-01 3.010711466e-03 1.067244587e-02
            3.759808556e-03 3.967232466e-03 1.161214959e-03 5.524714268e-03 2.905571453e-03 9.830220655e-03 -8.684820599e-01 3.157766145e-01
2.580000e+09 -2.623887746e-01 9.023040831e-01 3.169222651e-02 1.793056941e-02 2.440990799e-01 2.069804121e-01 4.010499712e-03 3.861603528e-03
            3.142907632e-02 2.492084108e-02 -8.745579127e-01 4.786693591e-01 1.823771956e-02 3.548998237e-02 5.238449852e-04 6.295245515e-03
            2.404392521e-01 2.139168311e-01 2.051979766e-02 2.974794665e-02 -8.561142518e-01 4.014865938e-01 3.051495584e-03 1.071008809e-02
            3.805105791e-03 3.963762180e-03 1.187603744e-03 5.554362614e-03 2.944506217e-03 9.864720117e-03 -8.679929091e-01 3.167941074e-01
2.590000e+09 -2.571692093e-01 9.031705483e-01 3.194131302e-02 1.786955568e-02 2.459504403e-01 2.070007037e-01 4.057571703e-03 3.855242803e-03
            3.172150231e-02 2.493143005e-02 -8.735062257e-01 4.804422930e-01 1.842374243e-02 3.563885793e-02 5.473407242e-04 6.337183543e-03
            2.422584641e-01 2.139373601e-01 2.070053717e-02 2.983063908e-02 -8.549826545e-01 4.028338312e-01 3.092478985e-03 1.074756464e-02
            3.850520279e-03 3.959929222e-03 1.214249049e-03 5.584035042e-03 2.983620047e-03 9.899079782e-03 -8.675026990e-01 3.178112037e-01
2.600000e+09 -2.519495253e-01 9.040040568e-01 3.219094903e-02 1.780631927e-02 2.478071207e-01 2.070108677e-01 4.104758983e-03 3.848468680e-03
            3.201543162e-02 2.494021865e-02 -8.724503276e-01 4.822114987e-01 1.861107192e-02 3.578752293e-02 5.711530814e-04 6.379313753e-03
            2.440778306e-01 2.139470311e-01 2.088218402e-02 2.991247584e-02 -8.538458012e-01 4.041781838e-01 3.133660033e-03 1.078487486e-02
            3.896048531e-03 3.955733357e-03 1.241152108e-03 5.613731123e-03 3.022911649e-03 9.933299452e-03 -8.670114494e-01 3.188278997e-01
2.610000e+09 -2.467302138e-01 9.048049084e-01 3.244110221e-02 1.774084152e-02 2.496692033e-01 2.070108182e-01 4.152057507e-03 3.841279706e-03
            3.231085209e-02 2.494718927e-02 -8.713903568e-01 4.839769124e-01 1.879970932e-02 3.593597110e-02 5.952861394e-04 6.421637767e-03
            2.458972190e-01 2.139460141e-01 2.106472485e-02 2.999343953e-02 -8.527035439e-01 4.055195822e-01 3.175037079e-03 1.082201821e-02
            3.941687067e-03 3.951174499e-03 1.268314123e-03 5.643450478e-03 3.062379734e-03 9.967379024e-03 -8.665191812e-01 3.198441942e-01
2.620000e+09 -2.415117564e-01 9.055734307e-01 3.269173909e-02 1.767310474e-02 2.515367714e-01 2.070004607e-01 4.199463216e-03 3.833674569e-03
            3.260775112e-02 2.495232484e-02 -8.703264590e-01 4.857384757e-01 1.898965582e-02 3.608419638e-02 6.197440554e-04 6.464157226e-03
            2.477165044e-01 2.139344884e-01 2.124814527e-02 3.007351299e-02 -8.515557326e-01 4.068579478e-01 3.216608468e-03 1.085899431e-02
            3.987432431e-03 3.946252718e-03 1.295736266e-03 5.673192775e-03 3.102023035e-03 1.000131849e-02 -8.660259161e-01 3.208600889e-01
2.630000e+09 -2.362946240e-01 9.063099794e-01 3.294282504e-02 1.760309222e-02 2.534099098e-01 2.069796911e-01 4.246972040e-03 3.825652098e-03
            3.290611571e-02 2.495560885e-02 -8.692587870e-01 4.874961360e-01 1.918091249e-02 3.623219293e-02 6.445310640e-04 6.506873795e-03
            2.495355707e-01 2.139126427e-01 2.143242983e-02 3.015267941e-02 -8.504022166e-01 4.081931916e-01 3.258372543e-03 1.089580291e-02
            4.033281197e-03 3.940968239e-03 1.323419682e-03 5.702957742e-03 3.141840304e-03 1.003511795e-02 -8.655316769e-01 3.218755885e-01
2.640000e+09 -2.310792748e-01 9.070149391e-01 3.319432429e-02 1.753078838e-02 2.552887037e-01 2.069483958e-01 4.294579910e-03 3.817211271e-03
            3.320593243e-02 2.495702540e-02 -8.681875006e-01 4.892498468e-01 1.937348032e-02 3.637995515e-02 6.696514799e-04 6.549789161e-03
            2.513543110e-01 2.138806748e-01 2.161756203e-02 3.023092232e-02 -8.492428443e-01 4.095252148e-01 3.300327658e-03 1.093244391e-02
            4.079229983e-03 3.935321453e-03 1.351365483e-03 5.732745170e-03 3.181830325e-03 1.006877760e-02 -8.650364870e-01 3.228907006e-01
2.650000e+09 -2.258661522e-01 9.076887231e-01 3.344619995e-02 1.745617883e-02 2.571732386e-01 2.069064509e-01 4.342282771e-03 3.808351216e-03
            3.350718749e-02 2.495655923e-02 -8.671127666e-01 4.909995690e-01 1.956736021e-02 3.652747767e-02 6.951097016e-04 6.592905038e-03
            2.531726284e-01 2.138387914e-01 2.180352427e-02 3.030822570e-02 -8.480774638e-01 4.108539076e-01 3.342472181e-03 1.096891739e-02
            4.125275459e-03 3.929312911e-03 1.379574758e-03 5.762554919e-03 3.221991917e-03 1.010229775e-02 -8.645403709e-01 3.239054362e-01
2.660000e+09 -2.206556839e-01 9.083317740e-01 3.369841402e-02 1.737925043e-02 2.590635999e-01 2.068537222e-01 4.390076587e-03 3.799071219e-03
            3.380986676e-02 2.495419577e-02 -8.660347591e-01 4.927452706e-01 1.976255301e-02 3.667475539e-02 7.209102143e-04 6.636223167e-03
            2.549904369e-01 2.137872083e-01 2.199029788e-02 3.038457399e-02 -8.469059240e-01 4.121791497e-01 3.384804503e-03 1.100522356e-02
            4.171414362e-03 3.922943331e-03 1.408048566e-03 5.792386928e-03 3.262323948e-03 1.013567884e-02 -8.640433535e-01 3.249198098e-01
2.670000e+09 -2.154482787e-01 9.089445642e-01 3.395092746e-02 1.729999143e-02 2.609598723e-01 2.067900644e-01 4.437957359e-03 3.789370725e-03
            3.411395578e-02 2.494992118e-02 -8.649536592e-01 4.944869280e-01 1.995905953e-02 3.682178350e-02 7.470575939e-04 6.679745318e-03
            2.568076624e-01 2.137261496e-01 2.217786303e-02 3.045995224e-02 -8.457280744e-01 4.135008094e-01 3.427323050e-03 1.104136285e-02
            4.217643510e-03 3.916213597e-03 1.436787944e-03 5.822241219e-03 3.302825336e-03 1.016892142e-02 -8.635454604e-01 3.259338394e-01
2.680000e+09 -2.102443256e-01 9.095275954e-01 3.420370017e-02 1.721839155e-02 2.628621395e-01 2.067153214e-01 4.485921134e-03 3.779249343e-03
            3.441943986e-02 2.494372238e-02 -8.638696549e-01 4.962245262e-01 2.015688056e-02 3.696855752e-02 7.735565107e-04 6.723473292e-03
            2.586242433e-01 2.136558480e-01 2.236619879e-02 3.053434609e-02 -8.445437663e-01 4.148187434e-01 3.470026290e-03 1.107733585e-02
            4.263959811e-03 3.909124763e-03 1.465793907e-03 5.852117905e-03 3.343495062e-03 1.020202615e-02 -8.630467179e-01 3.269475470e-01
2.690000e+09 -2.050441910e-01 9.100813994e-01 3.445669105e-02 1.713444204e-02 2.647704834e-01 2.066293254e-01 4.533964016e-03 3.768706849e-03
            3.472630402e-02 2.493558711e-02 -8.627829411e-01 4.979580596e-01 2.035601687e-02 3.711507325e-02 8.004117340e-04 6.767408925e-03
            2.604401314e-01 2.135765442e-01 2.255528310e-02 3.060774191e-02 -8.433528535e-01 4.161327969e-01 3.512912744e-03 1.111314335e-02
            4.310360283e-03 3.901678053e-03 1.495067447e-03 5.882017203e-03 3.384332182e-03 1.023499385e-02 -8.625471524e-01 3.279609584e-01
2.700000e+09 -1.998482165e-01 9.106065373e-01 3.470985804e-02 1.704813584e-02 2.666849835e-01 2.065318967e-01 4.582082188e-03 3.757743189e-03
            3.503453312e-02 2.492550396e-02 -8.616937196e-01 4.996875328e-01 2.055646929e-02 3.726132687e-02 8.276281361e-04 6.811554088e-03
            2.622552929e-01 2.134884864e-01 2.274509275e-02 3.068012683e-02 -8.421551927e-01 4.174428029e-01 3.555980999e-03 1.114878633e-02
            4.356842065e-03 3.893874860e-03 1.524609542e-03 5.911939434e-03 3.425335829e-03 1.026782543e-02 -8.620467909e-01 3.289741037e-01
2.710000e+09 -1.946567169e-01 9.111036002e-01 3.496315818e-02 1.695946762e-02 2.686057167e-01 2.064228435e-01 4.630271916e-03 3.746358480e-03
            3.534411188e-02 2.491346243e-02 -8.606021984e-01 5.014129609e-01 2.075823865e-02 3.740731490e-02 8.552106975e-04 6.855910691e-03
            2.640697095e-01 2.133919303e-01 2.293560337e-02 3.075148885e-02 -8.409506443e-01 4.187485822e-01 3.599229719e-03 1.118426598e-02
            4.403402436e-03 3.885716744e-03 1.554421158e-03 5.941885040e-03 3.466505234e-03 1.030052198e-02 -8.615456604e-01 3.299870172e-01
2.720000e+09 -1.894699778e-01 9.115732081e-01 3.521654765e-02 1.686843394e-02 2.705327562e-01 2.063019615e-01 4.678529577e-03 3.734553016e-03
            3.565502491e-02 2.489945295e-02 -8.595085923e-01 5.031343708e-01 2.096132589e-02 3.755303425e-02 8.831645118e-04 6.900480683e-03
            2.658833790e-01 2.132871380e-01 2.312678947e-02 3.082181693e-02 -8.397390735e-01 4.200499430e-01 3.642657656e-03 1.121958372e-02
            4.450038830e-03 3.877205436e-03 1.584503249e-03 5.971854585e-03 3.507839727e-03 1.033308471e-02 -8.610437881e-01 3.309997380e-01
2.730000e+09 -1.842882528e-01 9.120160103e-01 3.546998185e-02 1.677503330e-02 2.724661709e-01 2.061690338e-01 4.726851665e-03 3.722327262e-03
            3.596725680e-02 2.488346692e-02 -8.584131219e-01 5.048518013e-01 2.116573204e-02 3.769848222e-02 9.114947915e-04 6.945266057e-03
            2.676963165e-01 2.131743781e-01 2.331862440e-02 3.089110105e-02 -8.385203510e-01 4.213466810e-01 3.686263669e-03 1.125474116e-02
            4.496748857e-03 3.868342828e-03 1.614856765e-03 6.001848773e-03 3.549338756e-03 1.036551496e-02 -8.605412011e-01 3.320123096e-01
2.740000e+09 -1.791117612e-01 9.124326842e-01 3.572341545e-02 1.667926629e-02 2.744060249e-01 2.060238303e-01 4.775234815e-03 3.709681861e-03
            3.628079216e-02 2.486549676e-02 -8.573160140e-01 5.065653045e-01 2.137145826e-02 3.784365653e-02 9.402068736e-04 6.990268853e-03
            2.695085553e-01 2.130539246e-01 2.351108040e-02 3.095933230e-02 -8.372943537e-01 4.226385790e-01 3.730046731e-03 1.128974017e-02
            4.543530318e-03 3.859130978e-03 1.645482660e-03 6.031868450e-03 3.591001896e-03 1.039781423e-02 -8.600379260e-01 3.330247806e-01
2.750000e+09 -1.739406852e-01 9.128239353e-01 3.597680250e-02 1.658113567e-02 2.763523766e-01 2.058661079e-01 4.823675819e-03 3.696617632e-03
            3.659561567e-02 2.484553598e-02 -8.562175007e-01 5.082749461e-01 2.157850586e-02 3.798855533e-02 9.693062260e-04 7.035491159e-03
            2.713201479e-01 2.129260565e-01 2.370412856e-02 3.102650303e-02 -8.360609659e-01 4.239254067e-01 3.774005952e-03 1.132458284e-02
            4.590381227e-03 3.849572100e-03 1.676381890e-03 6.061914618e-03 3.632828863e-03 1.042998419e-02 -8.595339895e-01 3.340372046e-01
2.760000e+09 -1.687751675e-01 9.131904959e-01 3.623009650e-02 1.648064647e-02 2.783052777e-01 2.056956097e-01 4.872171649e-03 3.683135565e-03
            3.691171220e-02 2.482357914e-02 -8.551178194e-01 5.099808063e-01 2.178687637e-02 3.813317723e-02 9.987984542e-04 7.080935115e-03
            2.731311672e-01 2.127910567e-01 2.389773889e-02 3.109260685e-02 -8.348200804e-01 4.252069208e-01 3.818140592e-03 1.135927150e-02
            4.637299831e-03 3.839668563e-03 1.707555428e-03 6.091988447e-03 3.674819529e-03 1.046202661e-02 -8.590294173e-01 3.350496404e-01
2.770000e+09 -1.636153079e-01 9.135331243e-01 3.648325046e-02 1.637780614e-02 2.802647725e-01 2.055120656e-01 4.920719470e-03 3.669236826e-03
            3.722906682e-02 2.479962197e-02 -8.540172120e-01 5.116829808e-01 2.199657154e-02 3.827752129e-02 1.028689308e-03 7.126602915e-03
            2.749417072e-01 2.126492114e-01 2.409188030e-02 3.115763884e-02 -8.335715989e-01 4.264828650e-01 3.862450077e-03 1.139380873e-02
            4.684284629e-03 3.829422883e-03 1.739004267e-03 6.122091281e-03 3.716973932e-03 1.049394346e-02 -8.585242346e-01 3.360621522e-01
2.780000e+09 -1.584611612e-01 9.138526039e-01 3.673621709e-02 1.627262462e-02 2.822308974e-01 2.053151914e-01 4.969316671e-03 3.654922748e-03
            3.754766493e-02 2.477366136e-02 -8.529159251e-01 5.133815815e-01 2.220759338e-02 3.842158705e-02 1.058984691e-03 7.172496812e-03
            2.767518845e-01 2.125008093e-01 2.428652067e-02 3.122159556e-02 -8.323154340e-01 4.277529696e-01 3.906934019e-03 1.142819737e-02
            4.731334400e-03 3.818837714e-03 1.770729428e-03 6.152224652e-03 3.759292295e-03 1.052573684e-02 -8.580184654e-01 3.370748096e-01
2.790000e+09 -1.533127335e-01 9.141497414e-01 3.698894882e-02 1.616511445e-02 2.842036791e-01 2.051046892e-01 5.017960879e-03 3.640194830e-03
            3.786749231e-02 2.474569539e-02 -8.518142085e-01 5.150767372e-01 2.241994423e-02 3.856537456e-02 1.089690665e-03 7.218619118e-03
            2.785618389e-01 2.123461402e-01 2.448162684e-02 3.128447523e-02 -8.310515095e-01 4.290169519e-01 3.951592237e-03 1.146244050e-02
            4.778448219e-03 3.807915844e-03 1.802731971e-03 6.182390291e-03 3.801775039e-03 1.055740901e-02 -8.575121329e-01 3.380876880e-01
2.800000e+09 -1.481699799e-01 9.144253657e-01 3.724139800e-02 1.605529090e-02 2.861831343e-01 2.048802470e-01 5.066649986e-03 3.625054732e-03
            3.818853524e-02 2.471572338e-02 -8.507123158e-01 5.167685946e-01 2.263362674e-02 3.870888435e-02 1.120813462e-03 7.264972212e-03
            2.803717344e-01 2.121854939e-01 2.467716468e-02 3.134627777e-02 -8.297797622e-01 4.302745161e-01 3.996424772e-03 1.149654148e-02
            4.825625486e-03 3.796660181e-03 1.835013005e-03 6.212590139e-03 3.844422803e-03 1.058896240e-02 -8.570052585e-01 3.391008687e-01
2.810000e+09 -1.430328008e-01 9.146803261e-01 3.749351698e-02 1.594317205e-02 2.881692687e-01 2.046415389e-01 5.115382176e-03 3.609504267e-03
            3.851078054e-02 2.468374592e-02 -8.496105024e-01 5.184573195e-01 2.284864401e-02 3.885211749e-02 1.152359492e-03 7.311558537e-03
            2.821817607e-01 2.120191594e-01 2.487309911e-02 3.140700499e-02 -8.285001427e-01 4.315253532e-01 4.041431915e-03 1.153050392e-02
            4.872865948e-03 3.785073746e-03 1.867573697e-03 6.242826360e-03 3.887236454e-03 1.062039957e-02 -8.564978622e-01 3.401144386e-01
2.820000e+09 -1.379010393e-01 9.149154899e-01 3.774525830e-02 1.582877891e-02 2.901620755e-01 2.043882251e-01 5.164155942e-03 3.593545398e-03
            3.883421574e-02 2.464976488e-02 -8.485090260e-01 5.201430968e-01 2.306499952e-02 3.899507557e-02 1.184335353e-03 7.358380609e-03
            2.839921339e-01 2.118474231e-01 2.506939418e-02 3.146666063e-02 -8.272126167e-01 4.327691417e-01 4.086614225e-03 1.156433170e-02
            4.920169724e-03 3.773159653e-03 1.900415286e-03 6.273101350e-03 3.930217111e-03 1.065172325e-02 -8.559899620e-01 3.411284910e-01
2.830000e+09 -1.327744778e-01 9.151317408e-01 3.799657481e-02 1.571213551e-02 2.921615344e-01 2.041199519e-01 5.212970119e-03 3.577180220e-03
            3.915882913e-02 2.461378341e-02 -8.474081450e-01 5.218261322e-01 2.328269727e-02 3.913776071e-02 1.216747841e-03 7.405441017e-03
            2.858030975e-01 2.116705676e-01 2.526601313e-02 3.152525054e-02 -8.259171666e-01 4.340055474e-01 4.131972552e-03 1.159802898e-02
            4.967537334e-03 3.760921104e-03 1.933539095e-03 6.303417752e-03 3.973366159e-03 1.068293633e-02 -8.554815737e-01 3.421431251e-01
2.840000e+09 -1.276528350e-01 9.153299760e-01 3.824741984e-02 1.559326900e-02 2.941676108e-01 2.038363517e-01 5.261823911e-03 3.560410961e-03
            3.948460990e-02 2.457580603e-02 -8.463081181e-01 5.235066528e-01 2.350174177e-02 3.928017557e-02 1.249603960e-03 7.452742428e-03
            2.876149234e-01 2.114888702e-01 2.546291844e-02 3.158278277e-02 -8.246137926e-01 4.352342237e-01 4.177508066e-03 1.163160018e-02
            5.014969723e-03 3.748361364e-03 1.966946548e-03 6.333778467e-03 4.016685269e-03 1.071404183e-02 -8.549727109e-01 3.431584463e-01
2.850000e+09 -1.225357625e-01 9.155111038e-01 3.849774743e-02 1.547220976e-02 2.961802544e-01 2.035370433e-01 5.310716911e-03 3.543239960e-03
            3.981154822e-02 2.453583854e-02 -8.452092029e-01 5.251849079e-01 2.372213814e-02 3.942232336e-02 1.282910936e-03 7.500287589e-03
            2.894279130e-01 2.113026007e-01 2.566007189e-02 3.163926766e-02 -8.233025143e-01 4.364548123e-01 4.223222276e-03 1.166504999e-02
            5.062468291e-03 3.735483749e-03 2.000639180e-03 6.364186669e-03 4.060176417e-03 1.074504294e-02 -8.544633840e-01 3.441745665e-01
2.860000e+09 -1.174228418e-01 9.156760402e-01 3.874751245e-02 1.534899146e-02 2.981993977e-01 2.032216324e-01 5.359649139e-03 3.525669659e-03
            4.013963542e-02 2.449388814e-02 -8.441116554e-01 5.268611697e-01 2.394389209e-02 3.956420783e-02 1.316676227e-03 7.548079330e-03
            2.912423979e-01 2.111120206e-01 2.585743472e-02 3.169471805e-02 -8.219833717e-01 4.376669431e-01 4.269117062e-03 1.169838337e-02
            5.110034916e-03 3.722291603e-03 2.034618661e-03 6.394645810e-03 4.103841903e-03 1.077594297e-02 -8.539536006e-01 3.451916036e-01
2.870000e+09 -1.123135812e-01 9.158257060e-01 3.899667085e-02 1.522365117e-02 3.002249552e-01 2.028897116e-01 5.408621065e-03 3.507702585e-03
            4.046886405e-02 2.444996332e-02 -8.430157285e-01 5.285357345e-01 2.416701005e-02 3.970583326e-02 1.350907537e-03 7.596120570e-03
            2.930587408e-01 2.109173800e-01 2.605496763e-02 3.174914931e-02 -8.206564273e-01 4.388702351e-01 4.315194700e-03 1.173160555e-02
            5.157671990e-03 3.708788276e-03 2.068886809e-03 6.425159643e-03 4.147684372e-03 1.080674538e-02 -8.534433648e-01 3.462096820e-01
2.880000e+09 -1.072074122e-01 9.159610230e-01 3.924517986e-02 1.509622941e-02 3.022568216e-01 2.025408607e-01 5.457633639e-03 3.489341335e-03
            4.079922803e-02 2.440407395e-02 -8.419216710e-01 5.302089235e-01 2.439149918e-02 3.984720450e-02 1.385612829e-03 7.644414316e-03
            2.948773365e-01 2.107189166e-01 2.625263097e-02 3.180257951e-02 -8.193217670e-01 4.400642970e-01 4.361457891e-03 1.176472202e-02
            5.205382440e-03 3.694977103e-03 2.103445610e-03 6.455732224e-03 4.191706835e-03 1.083745376e-02 -8.529326770e-01 3.472289325e-01
2.890000e+09 -1.021036870e-01 9.160829099e-01 3.949299822e-02 1.496677026e-02 3.042948711e-01 2.021746475e-01 5.506688325e-03 3.470588553e-03
            4.113072283e-02 2.435623121e-02 -8.408297261e-01 5.318810832e-01 2.461736744e-02 3.998832690e-02 1.420800341e-03 7.692963670e-03
            2.966986127e-01 2.105168527e-01 2.645038479e-02 3.185502957e-02 -8.179795021e-01 4.412487276e-01 4.407909791e-03 1.179773853e-02
            5.253169766e-03 3.680861373e-03 2.138297245e-03 6.486367932e-03 4.235912688e-03 1.086807182e-02 -8.524215332e-01 3.482494919e-01
2.900000e+09 -9.700167485e-02 9.161922783e-01 3.974008644e-02 1.483532137e-02 3.063389552e-01 2.017906283e-01 5.555787130e-03 3.451446909e-03
            4.146334555e-02 2.430644760e-02 -8.397401303e-01 5.335525868e-01 2.484462364e-02 4.012920633e-02 1.456478598e-03 7.741771827e-03
            2.985230303e-01 2.103113933e-01 2.664818901e-02 3.190652331e-02 -8.166297706e-01 4.424231167e-01 4.454554041e-03 1.183066107e-02
            5.301038062e-03 3.666444303e-03 2.173444103e-03 6.517071476e-03 4.280305736e-03 1.089860338e-02 -8.519099251e-01 3.492715035e-01
2.910000e+09 -9.190055954e-02 9.162900279e-01 3.998640703e-02 1.470193407e-02 3.083889019e-01 2.013883481e-01 5.604932634e-03 3.431919078e-03
            4.179709510e-02 2.425473691e-02 -8.386531116e-01 5.352238343e-01 2.507327750e-02 4.026984918e-02 1.492656432e-03 7.790842083e-03
            3.003510844e-01 2.101027234e-01 2.684600353e-02 3.195708765e-02 -8.152727389e-01 4.435870459e-01 4.501394801e-03 1.186349587e-02
            5.348992051e-03 3.651729005e-03 2.208888817e-03 6.547847908e-03 4.324890213e-03 1.092905237e-02 -8.513978393e-01 3.502951167e-01
2.920000e+09 -8.679943617e-02 9.163770416e-01 4.023192479e-02 1.456666334e-02 3.104445140e-01 2.009673421e-01 5.654128023e-03 3.412007710e-03
            4.213197232e-02 2.420111419e-02 -8.375688884e-01 5.368952538e-01 2.530333970e-02 4.041026230e-02 1.529342997e-03 7.840177833e-03
            3.021833046e-01 2.098910056e-01 2.704378838e-02 3.200675269e-02 -8.139086032e-01 4.447400898e-01 4.548436778e-03 1.189624941e-02
            5.397037114e-03 3.636718455e-03 2.244634279e-03 6.578702637e-03 4.369670805e-03 1.095942280e-02 -8.508852571e-01 3.513204868e-01
2.930000e+09 -8.169730852e-02 9.164541799e-01 4.047660707e-02 1.442956794e-02 3.125055678e-01 2.005271358e-01 5.703377123e-03 3.391715403e-03
            4.246798018e-02 2.414559570e-02 -8.364876670e-01 5.385673018e-01 2.553482198e-02 4.055045302e-02 1.566547786e-03 7.889782575e-03
            3.040202557e-01 2.096763769e-01 2.724150392e-02 3.205555184e-02 -8.125375917e-01 4.458818166e-01 4.595685264e-03 1.192892836e-02
            5.445179317e-03 3.621415453e-03 2.280683676e-03 6.609641436e-03 4.414652671e-03 1.098971878e-02 -8.503721538e-01 3.523477749e-01
2.940000e+09 -7.659308637e-02 9.165222753e-01 4.072042411e-02 1.429071032e-02 3.145718112e-01 2.000672464e-01 5.752684428e-03 3.371044669e-03
            4.280512389e-02 2.408819884e-02 -8.354096408e-01 5.402404640e-01 2.576773712e-02 4.069042909e-02 1.604280652e-03 7.939659911e-03
            3.058625376e-01 2.094589462e-01 2.743911095e-02 3.210352194e-02 -8.111599654e-01 4.470117895e-01 4.643146168e-03 1.196153963e-02
            5.493425444e-03 3.605822584e-03 2.317040518e-03 6.640670454e-03 4.459841469e-03 1.101994446e-02 -8.498584987e-01 3.533771480e-01
2.950000e+09 -7.148558305e-02 9.165821260e-01 4.096334929e-02 1.415015671e-02 3.166429626e-01 1.995871837e-01 5.802055137e-03 3.349997902e-03
            4.314341111e-02 2.402894215e-02 -8.343349875e-01 5.419152559e-01 2.600209908e-02 4.083019863e-02 1.642551826e-03 7.989813548e-03
            3.077107859e-01 2.092387908e-01 2.763657095e-02 3.215070337e-02 -8.097760205e-01 4.481295682e-01 4.690826052e-03 1.199409027e-02
            5.541783025e-03 3.589942179e-03 2.353708667e-03 6.671796226e-03 4.505243372e-03 1.105010403e-02 -8.493442539e-01 3.544087782e-01
2.960000e+09 -6.637351313e-02 9.166344895e-01 4.120535950e-02 1.400797706e-02 3.187187092e-01 1.990864511e-01 5.851495182e-03 3.328577341e-03
            4.348285205e-02 2.396784516e-02 -8.332638676e-01 5.435922230e-01 2.623792301e-02 4.096977015e-02 1.681371938e-03 8.040247300e-03
            3.095656717e-01 2.090159534e-01 2.783384623e-02 3.219714016e-02 -8.083860896e-01 4.492347100e-01 4.738732167e-03 1.202658753e-02
            5.590260363e-03 3.573776264e-03 2.390692374e-03 6.703025681e-03 4.550865098e-03 1.108020172e-02 -8.488293747e-01 3.554428429e-01
2.970000e+09 -6.125549041e-02 9.166800750e-01 4.144643548e-02 1.386424504e-02 3.207987054e-01 1.985645474e-01 5.901011263e-03 3.306785028e-03
            4.382345971e-02 2.390492836e-02 -8.321964220e-01 5.452719415e-01 2.647522532e-02 4.110915243e-02 1.720752038e-03 8.090965086e-03
            3.114279014e-01 2.087904384e-01 2.803090021e-02 3.224288010e-02 -8.069905434e-01 4.503267712e-01 4.786872487e-03 1.205903880e-02
            5.638866560e-03 3.557326517e-03 2.427996314e-03 6.734366152e-03 4.596713926e-03 1.111024177e-02 -8.483138083e-01 3.564795242e-01
2.980000e+09 -5.613002605e-02 9.167195365e-01 4.168656212e-02 1.371903797e-02 3.228825711e-01 1.980209676e-01 5.950610876e-03 3.284622762e-03
            4.416524998e-02 2.384021309e-02 -8.311327699e-01 5.469550188e-01 2.671402374e-02 4.124835454e-02 1.760703622e-03 8.141970930e-03
            3.132982167e-01 2.085622085e-01 2.822769758e-02 3.228797483e-02 -8.055897925e-01 4.514053091e-01 4.835255751e-03 1.209145158e-02
            5.687611549e-03 3.540594210e-03 2.465625625e-03 6.765825379e-03 4.642797721e-03 1.114022838e-02 -8.477974936e-01 3.575190084e-01
2.990000e+09 -5.099552714e-02 9.167534643e-01 4.192572889e-02 1.357243678e-02 3.249698905e-01 1.974552048e-01 6.000302347e-03 3.262092058e-03
            4.450824187e-02 2.377372141e-02 -8.300730064e-01 5.486420933e-01 2.695433737e-02 4.138738571e-02 1.801238650e-03 8.193268963e-03
            3.151773940e-01 2.083311807e-01 2.842420457e-02 3.233247993e-02 -8.041842889e-01 4.524698837e-01 4.883891496e-03 1.212383346e-02
            5.736506116e-03 3.523580161e-03 2.503585947e-03 6.797411519e-03 4.689124955e-03 1.117016572e-02 -8.472803608e-01 3.585614860e-01
3.000000e+09 -4.585029547e-02 9.167823769e-01 4.216393016e-02 1.342452593e-02 3.270602101e-01 1.968667518e-01 6.050094861e-03 3.239194091e-03
            4.485245764e-02 2.370547600e-02 -8.290171998e-01 5.503338350e-01 2.719618673e-02 4.152625531e-02 1.842369579e-03 8.244863415e-03
            3.170662436e-01 2.080972224e-01 2.862038921e-02 3.237645504e-02 -8.027745273e-01 4.535200594e-01 4.932790099e-03 1.215619212e-02
            5.785561923e-03 3.506284667e-03 2.541883466e-03 6.829133150e-03 4.735704728e-03 1.120005788e-02 -8.467623305e-01 3.596071508e-01
